LAMMPS data file atomic style, metal units (NaCl6 frozen rattle + MB 300K seed=0)

1728 atoms
2 atom types

0.0 33.8400000000000034 xlo xhi
0.0 33.8400000000000034 ylo yhi
0.0 33.8400000000000034 zlo zhi

Masses

1 22.98976928
2 35.45000000

Atoms # atomic

1 1 2.7392337464300000e-02 3.3793957342799999e+01 3.3748194704799999e+01
2 2 2.7233055271100000e+00 6.2654047840099994e-02 8.2551115455499993e-02
3 1 2.1327155153400001e-02 2.8658993121999998e+00 2.8287249982899998e+00
4 2 2.9070144847599999e+00 2.8831707108200000e+00 2.7205477000300000e+00
5 1 2.8914808553200002e+00 3.3746717115099997e+01 2.8659310892900001e+00
6 2 3.3775131124100000e+01 7.2635784470000006e-02 2.8282922440500000e+00
7 1 2.7799423781099999e+00 2.8045374442400002e+00 3.3745663934200003e+01
8 2 3.3764856655300001e+01 2.8541248829399999e+00 2.9437902314900000e-02
9 1 2.3077022296300001e-02 3.3816735510900003e+01 5.7394419871600002e+00
10 2 2.9161670677600000e+00 3.7108396896100002e-02 5.6700918552499999e+00
11 1 3.7689346114200002e-02 2.7977842848000001e+00 8.3870193010000005e+00
12 2 2.8642976680399999e+00 2.8250708644999998e+00 8.4220483751100002e+00
13 1 2.8171670717700001e+00 7.7897566869799997e-02 8.5468087031900009e+00
14 2 3.3811559039300001e+01 1.4305966146000000e-02 8.4243738782200008e+00
15 1 2.8388600060400000e+00 2.7875822450999999e+00 5.6183238001099998e+00
16 2 7.8054870400999996e-02 2.7654315187099998e+00 5.6646374289399999e+00
17 1 3.3756803068700002e+01 6.6528829530699995e-02 1.1337419661500000e+01
18 2 2.7678738886000001e+00 7.5296846162100001e-02 1.1191713607000001e+01
19 1 3.3807223412100001e+01 2.7500558933799999e+00 1.4090067873300001e+01
20 2 2.8792648540600001e+00 2.7661284417999998e+00 1.4010404260200000e+01
21 1 2.8009103679599998e+00 3.3779702608900003e+01 1.4018150609099999e+01
22 2 1.6066477197399998e-02 3.3799739226600003e+01 1.4134398975600000e+01
23 1 2.7599030887899998e+00 2.9084226220999998e+00 1.1253022033600001e+01
24 2 3.3761099055899997e+01 2.8458216303100001e+00 1.1365430910600001e+01
25 1 3.3828075430900000e+01 9.0918098738100001e-02 1.6919979162699999e+01
26 2 2.8050457249699998e+00 2.4042690403100000e-02 1.7019019301000000e+01
27 1 8.9788734987599997e-02 2.8120090278599998e+00 1.9791545769100001e+01
28 2 2.8194845390999999e+00 2.8258624320400001e+00 1.9797157140100001e+01
29 1 2.8029311698699999e+00 4.6896714357700001e-02 1.9782228575600001e+01
30 2 8.6411937322700000e-02 3.3762986526699997e+01 1.9785803023400000e+01
31 1 2.9054847857200001e+00 2.9135852379800000e+00 1.6822941261000000e+01
32 2 7.2728018049099993e-02 2.9162390080099998e+00 1.7011442035900000e+01
33 1 3.3769752802399999e+01 9.4525762764599994e-02 2.2637987111099999e+01
34 2 2.8844747655099998e+00 3.3835997584799998e+01 2.2506474583900001e+01
35 1 6.0376115743699998e-02 2.9047060319600000e+00 2.5333226054499999e+01
36 2 2.8277868815199998e+00 2.8085505657900001e+00 2.5466203463199999e+01
37 1 2.7281021422400000e+00 4.6401239131300002e-02 2.5402874649400001e+01
38 2 3.3745673072999999e+01 4.3843954565299999e-02 2.5283198345900001e+01
39 1 2.8715902004700000e+00 2.8225517446500001e+00 2.2645820844199999e+01
40 2 3.3753216499300002e+01 2.8882634559199998e+00 2.2473338001799998e+01
41 1 3.3808861995800001e+01 3.3826059746399999e+01 2.8293212416199999e+01
42 2 2.8324463684499999e+00 3.3791772918600003e+01 2.8148335142800001e+01
43 1 7.7623664131799996e-02 2.7651738856799999e+00 3.0944910941200000e+01
44 2 2.7776661514000001e+00 2.8372246129600001e+00 3.1030818100400001e+01
45 1 2.8819421551800000e+00 1.2095190401200001e-02 3.0977684242900001e+01
46 2 3.3822579268500000e+01 6.3624194194199998e-02 3.1045301292500000e+01
47 1 2.9118155285400000e+00 2.7938808822199999e+00 2.8210522302099999e+01
48 2 1.8784840322599999e-02 2.8896582416599998e+00 2.8129094707600000e+01
49 1 3.3821302067300003e+01 5.7219917923299999e+00 3.3748613377700003e+01
50 2 2.8845412560399999e+00 5.6230768074700004e+00 6.5960797055599998e-02
51 1 3.3741990912200002e+01 8.4330092315500007e+00 2.7357260074299998e+00
52 2 2.8505229152700000e+00 8.4147698197200000e+00 2.8605304141299999e+00
53 1 2.9087602853900001e+00 5.5653634204499998e+00 2.8929556590800001e+00
54 2 3.3751892830300001e+01 5.6161541016600003e+00 2.8059548122400000e+00
55 1 2.8177699093699999e+00 8.5552924643899999e+00 5.5138237620400002e-02
56 2 3.3801771472500000e+01 8.4139673571000007e+00 7.2624040837900000e-02
57 1 7.6261434547500007e-02 5.6421413011099997e+00 5.6088591461900004e+00
58 2 2.9189834696300001e+00 5.6031887090700003e+00 5.5765424757900002e+00
59 1 7.6019624260800001e-02 8.5224670796200002e+00 8.4935778811099993e+00
60 2 2.9116827263600000e+00 8.5451429154399996e+00 8.5096497006600007e+00
61 1 2.8921402819100002e+00 5.5894293480600004e+00 8.3882493113799992e+00
62 2 3.4012369862999998e-02 5.6829237073299996e+00 8.3934105857599999e+00
63 1 2.7991114546200002e+00 8.5420511532399992e+00 5.6522801535099996e+00
64 2 1.5667182985300000e-02 8.3988259545799995e+00 5.6452044497199996e+00
65 1 4.6869454789800003e-03 5.5577871280500002e+00 1.1376388538600001e+01
66 2 2.8342791200900002e+00 5.5412817765300000e+00 1.1334529840200000e+01
67 1 9.5653142767999993e-02 8.4779740056600001e+00 1.4063936327300000e+01
68 2 2.7575015431500001e+00 8.4945053267800006e+00 1.4039021479700001e+01
69 1 2.8355375784999999e+00 5.6604478352800003e+00 1.4192484618600000e+01
70 2 3.3754453053100001e+01 5.6399945647300003e+00 1.4148819495900000e+01
71 1 2.7554453480899999e+00 8.4376133463599992e+00 1.1192579099700000e+01
72 2 4.5176172755200000e-02 8.3775535773499996e+00 1.1259018341699999e+01
73 1 7.4704526224099996e-02 5.6344600673500000e+00 1.7002524386699999e+01
74 2 2.8731834235500000e+00 5.7230647920199997e+00 1.6845480601799999e+01
75 1 3.3754712581100002e+01 8.3740652507100002e+00 1.9813770858900000e+01
76 2 2.8468139958699998e+00 8.4593143387600005e+00 1.9672708683200000e+01
77 1 2.8547466875500001e+00 5.6036034775700001e+00 1.9782175972699999e+01
78 2 3.3832071065800001e+01 5.6414939721100001e+00 1.9797933146500000e+01
79 1 2.7385490951000002e+00 8.4757517006600001e+00 1.6859446989500000e+01
80 2 6.1627350362699999e-02 8.4577692072299993e+00 1.7017739066699999e+01
81 1 3.3776588664899997e+01 5.7326038280200002e+00 2.2620183407300001e+01
82 2 2.8162520993200002e+00 5.7027068128399998e+00 2.2580569781000001e+01
83 1 3.1024212798300001e-02 8.5427381525400001e+00 2.5293054083299999e+01
84 2 2.8869976407900002e+00 8.4363629559900009e+00 2.5345109123200000e+01
85 1 2.9188053542399999e+00 5.6962381004199996e+00 2.5377107027800001e+01
86 2 3.3824525679300002e+01 5.7155057811700001e+00 2.5297362974399999e+01
87 1 2.8616837513800002e+00 8.5178309247400001e+00 2.2619839275899999e+01
88 2 3.3804457344900001e+01 8.5193278365499996e+00 2.2505065688399998e+01
89 1 3.3812461590100000e+01 5.6234896224400002e+00 2.8208281996699998e+01
90 2 2.7425227331099999e+00 5.6213895601299999e+00 2.8100060138000000e+01
91 1 4.8876145269500001e-02 8.5303751824499994e+00 3.0947786335800000e+01
92 2 2.8607571538499998e+00 8.5242206176799993e+00 3.1116365664600000e+01
93 1 2.8887581124700001e+00 5.6248212970899996e+00 3.1115937741700002e+01
94 2 9.4796880970500000e-02 5.6407353958400002e+00 3.1070689307700000e+01
95 1 2.9027675335300001e+00 8.4552294143900006e+00 2.8272757248200001e+01
96 2 4.0313713212400001e-02 8.4187848511900008e+00 2.8253530454000000e+01
97 1 1.4136957171900000e-02 1.1198769030699999e+01 3.3818276085299999e+01
98 2 2.7347482026800001e+00 1.1275233392600001e+01 3.3825707921599999e+01
99 1 3.3824747488600003e+01 1.4117260070700000e+01 2.7445381320400002e+00
100 2 2.9067537819900000e+00 1.4136810089600001e+01 2.8847562716800002e+00
101 1 2.8993602464500001e+00 1.1296664009400001e+01 2.7280436441800000e+00
102 2 4.2297364823599998e-02 1.1293805170900001e+01 2.8851914444300002e+00
103 1 2.8264320946899999e+00 1.4162648819099999e+01 9.9402058614499994e-02
104 2 3.3810110962300001e+01 1.4034204288000000e+01 3.3818334959900000e+01
105 1 5.0609997973100000e-02 1.1267845786400001e+01 5.6576760218900004e+00
106 2 2.7454716943799999e+00 1.1325224702200000e+01 5.5960164803700003e+00
107 1 3.3778123512100002e+01 1.4172589999700000e+01 8.4728825642200007e+00
108 2 2.8168997884700002e+00 1.4179764753000001e+01 8.3772024872100008e+00
109 1 2.8592308900700001e+00 1.1245596458000000e+01 8.3950819499999998e+00
110 2 3.4959729993499999e-02 1.1252564390200000e+01 8.4259791664999995e+00
111 1 2.9087355530500001e+00 1.4039859668100000e+01 5.6424347315699999e+00
112 2 3.3744802640099998e+01 1.4032673618200000e+01 5.7166837467300002e+00
113 1 5.7849509650500001e-02 1.1291367098000000e+01 1.1224490679200001e+01
114 2 2.8315495165200000e+00 1.1182429305199999e+01 1.1322598726200001e+01
115 1 4.3350136112700000e-02 1.4129209004700000e+01 1.4122267736900000e+01
116 2 2.7347432865200001e+00 1.4049281193800001e+01 1.4114875609600000e+01
117 1 2.7988373532100002e+00 1.1378404645700000e+01 1.4184749071500001e+01
118 2 3.3770401580500000e+01 1.1297992118500000e+01 1.4139243021200000e+01
119 1 2.7473086828600000e+00 1.4062519129400000e+01 1.1323183569399999e+01
120 2 8.0221618684599996e-02 1.4068348530000000e+01 1.1227788742300000e+01
121 1 6.4358400546000005e-02 1.1296996536000000e+01 1.6915317684300000e+01
122 2 2.7712300042900000e+00 1.1194531669700000e+01 1.6823578284200000e+01
123 1 1.5994036112800002e-02 1.4038222054700000e+01 1.9835106595700001e+01
124 2 2.7414954456800000e+00 1.4090417757699999e+01 1.9718931959399999e+01
125 1 2.7664622950600002e+00 1.1329751144999999e+01 1.9768740952400002e+01
126 2 4.5151537010399999e-02 1.1196561715200000e+01 1.9710548683100001e+01
127 1 2.8239666148699998e+00 1.4085344228700000e+01 1.6828123512400001e+01
128 2 3.3778805491000000e+01 1.4189004929699999e+01 1.6852513944999998e+01
129 1 7.0410466492599993e-02 1.1344427431800000e+01 2.2538258751400001e+01
130 2 2.8133567039699998e+00 1.1344800361500001e+01 2.2596137265100001e+01
131 1 6.7388747285799994e-02 1.4151519317200000e+01 2.5418254295899999e+01
132 2 2.9025948212000001e+00 1.4164561426600001e+01 2.5315812537500001e+01
133 1 2.8696448550200002e+00 1.1197336264600001e+01 2.5365171248100001e+01
134 2 3.3819350377399999e+01 1.1220433618800000e+01 2.5467581021699999e+01
135 1 2.7389553356700000e+00 1.4000979882999999e+01 2.2524584160700002e+01
136 2 9.8148943648199996e-02 1.4052939025700001e+01 2.2626138853099999e+01
137 1 3.3774622727400001e+01 1.1297275671000000e+01 2.8291681867000001e+01
138 2 2.8633026469099998e+00 1.1376101595000000e+01 2.8214911329800000e+01
139 1 9.6666941310700000e-02 1.4167409406299999e+01 3.1075649645199999e+01
140 2 2.8976979773800000e+00 1.4126298303500000e+01 3.0991272909300001e+01
141 1 2.8256564880099999e+00 1.1225300079100000e+01 3.1075508824800000e+01
142 2 3.3774015700299998e+01 1.1295439589800001e+01 3.1027179785900000e+01
143 1 2.8543805607000001e+00 1.4152097319699999e+01 2.8121965577200001e+01
144 2 2.4988192333600001e-02 1.4082791176500001e+01 2.8222840287099999e+01
145 1 3.8796908629299999e-02 1.6937095917200001e+01 4.6577215371700002e-02
146 2 2.8240050514399999e+00 1.6912573561799999e+01 3.3797353773099999e+01
147 1 3.3785830334000003e+01 1.9779060421200001e+01 2.8591422705600000e+00
148 2 2.7590965025999998e+00 1.9834367483299999e+01 2.8542301560599999e+00
149 1 2.8262432246400002e+00 1.6988235070300000e+01 2.8173040866600001e+00
150 2 3.3835188973999998e+01 1.6871654880000001e+01 2.7512270962800001e+00
151 1 2.8623241157799999e+00 1.9808822193600001e+01 3.5559755619200002e-02
152 2 3.3813764303299997e+01 1.9755144418200000e+01 1.2682494734799999e-02
153 1 8.7313216694899998e-02 1.6897534842399999e+01 5.5729565304099999e+00
154 2 2.8953865786700002e+00 1.6998945699400000e+01 5.5496531190000002e+00
155 1 3.3779644806199997e+01 1.9767256730700002e+01 8.5177690311299994e+00
156 2 2.8413385013500001e+00 1.9678317839200002e+01 8.3835283150500004e+00
157 1 2.8211945268099998e+00 1.6983102081300000e+01 8.4034134362100001e+00
158 2 3.3755026538999999e+01 1.6930208999200001e+01 8.3983634296300007e+00
159 1 2.7334847441000001e+00 1.9794652919600001e+01 5.7042453212200002e+00
160 2 3.3819667110200001e+01 1.9698815272000001e+01 5.5954241778900000e+00
161 1 3.3812194285200000e+01 1.6935381528600001e+01 1.1285564015600000e+01
162 2 2.7910698362300002e+00 1.6947484195800001e+01 1.1315153488400000e+01
163 1 1.1655789595000000e-02 1.9717458983000000e+01 1.4124780556399999e+01
164 2 2.8383805566400002e+00 1.9708064771499998e+01 1.4060640202500000e+01
165 1 2.8291497757999999e+00 1.6942468347799998e+01 1.4122159687800000e+01
166 2 3.3816567601800003e+01 1.6933154781399999e+01 1.4197153927000000e+01
167 1 2.8056049038099999e+00 1.9808602942899999e+01 1.1196264738300000e+01
168 2 7.5045650740399997e-02 1.9828341231100001e+01 1.1232372803200001e+01
169 1 3.3742420283100003e+01 1.6916601682700001e+01 1.6856542451500001e+01
170 2 2.9143262508599999e+00 1.6999539686999999e+01 1.7012132977200000e+01
171 1 2.0773931548200002e-02 1.9743032073399998e+01 1.9806543569900001e+01
172 2 2.8504697931399998e+00 1.9689711535299999e+01 1.9826857207700002e+01
173 1 2.8079398899900001e+00 1.6974711245700000e+01 1.9740187591400002e+01
174 2 3.3776671248600003e+01 1.6879185369399998e+01 1.9754882153800001e+01
175 1 2.7486004168500000e+00 1.9642747571699999e+01 1.6906778244900000e+01
176 2 5.2439434371800001e-02 1.9762831454699999e+01 1.6884829275200001e+01
177 1 4.3448187859099999e-02 1.6916902926599999e+01 2.2659900270500000e+01
178 2 2.8752063304900002e+00 1.6986126288299999e+01 2.2511909781200000e+01
179 1 3.3770458992599998e+01 1.9679860781799999e+01 2.5366452992900001e+01
180 2 2.8224298239199999e+00 1.9678921869500002e+01 2.5435988954199999e+01
181 1 2.8936862308800002e+00 1.6883200997199999e+01 2.5381612839399999e+01
182 2 1.8874920502600000e-02 1.6964475634799999e+01 2.5309494490900001e+01
183 1 2.7761742122799999e+00 1.9786141199199999e+01 2.2573638462900000e+01
184 2 7.9989158687800002e-02 1.9729571672399999e+01 2.2541322568999998e+01
185 1 3.3801301443500002e+01 1.6866274514499999e+01 2.8230153266999999e+01
186 2 2.7729372003599999e+00 1.6992455104099999e+01 2.8154129679099999e+01
187 1 3.4671926244999998e-02 1.9753636828400001e+01 3.1045691759600000e+01
188 2 2.8990833551300002e+00 1.9673997690299998e+01 3.0949963109199999e+01
189 1 2.7443804442699999e+00 1.6835287804200000e+01 3.1026846204700000e+01
190 2 3.3773146230400002e+01 1.6981433586000001e+01 3.0924522106100000e+01
191 1 2.7949213943500002e+00 1.9734640794299999e+01 2.8143305660100001e+01
192 2 3.3811181243900002e+01 1.9684558287100000e+01 2.8156365621300001e+01
193 1 8.5374212145699999e-02 2.2543435073300000e+01 3.3817172988300001e+01
194 2 2.8422348904899999e+00 2.2592828371300001e+01 3.2055308985499999e-02
195 1 3.3756951793399999e+01 2.5396380515800001e+01 2.8671847199800000e+00
196 2 2.8791136732300000e+00 2.5397706850399999e+01 2.7461146116499999e+00
197 1 2.7367480647800000e+00 2.2524610738600000e+01 2.9055117618900002e+00
198 2 3.3834523505800000e+01 2.2639094781400001e+01 2.8119349906600002e+00
199 1 2.8710236213100000e+00 2.5377025435099998e+01 4.1740452286500002e-02
200 2 3.3803435855300002e+01 2.5457973052700002e+01 3.3793141613700001e+01
201 1 3.3741235365800001e+01 2.2604233157199999e+01 5.6753208926500003e+00
202 2 2.8513802899899998e+00 2.2597483000499999e+01 5.6572528422000001e+00
203 1 3.3763055790599999e+01 2.5413840744500000e+01 8.3613197047599996e+00
204 2 2.7565685757899998e+00 2.5364175680999999e+01 8.4356738760799992e+00
205 1 2.7437930324800002e+00 2.2545391520799999e+01 8.4847234487200005e+00
206 2 3.3815492686299997e+01 2.2601699896700001e+01 8.4061844190800006e+00
207 1 2.7487650544500002e+00 2.5429779968900000e+01 5.6737456259499996e+00
208 2 3.3825874138700001e+01 2.5307353457000001e+01 5.6727367478700002e+00
209 1 4.9991149985199997e-02 2.2492788530599999e+01 1.1317860347400000e+01
210 2 2.7911274172799998e+00 2.2643023722999999e+01 1.1330307937500001e+01
211 1 3.3794746234000002e+01 2.5467605263900001e+01 1.4005046551200000e+01
212 2 2.7569648028999998e+00 2.5328380594199999e+01 1.4146416016700000e+01
213 1 2.8252336060999999e+00 2.2552875081600000e+01 1.4044506667800000e+01
214 2 5.1293422071899998e-02 2.2483421281599998e+01 1.4049468244100000e+01
215 1 2.8812720639100000e+00 2.5370209492899999e+01 1.1355363547300000e+01
216 2 2.0332820846500000e-02 2.5437908929399999e+01 1.1217480654599999e+01
217 1 3.3803244373500000e+01 2.2535341210399999e+01 1.6918839841200001e+01
218 2 2.8144934048999999e+00 2.2624493231500001e+01 1.6854638106399999e+01
219 1 7.0297182925899995e-02 2.5457809258800001e+01 1.9655103807100001e+01
220 2 2.7218780739200001e+00 2.5338550594600001e+01 1.9720148953599999e+01
221 1 2.9140898813499998e+00 2.2474281719400000e+01 1.9796261052999998e+01
222 2 3.3835084990699997e+01 2.2485974705000000e+01 1.9713216061699999e+01
223 1 2.7961802814199999e+00 2.5328714500099998e+01 1.6878872751500001e+01
224 2 3.3823983766200001e+01 2.5472452278999999e+01 1.6911772113800001e+01
225 1 9.0027002422500002e-02 2.2466106414300000e+01 2.2473222051699999e+01
226 2 2.7255631812400001e+00 2.2593188927700002e+01 2.2504046538200001e+01
227 1 1.5284036258600000e-02 2.5439073227100000e+01 2.5346362783699998e+01
228 2 2.7691354985399999e+00 2.5425081717400001e+01 2.5375179558700001e+01
229 1 2.7498420292099999e+00 2.2477489023499999e+01 2.5427433500199999e+01
230 2 7.2082466975799994e-02 2.2638072415700002e+01 2.5382017801500002e+01
231 1 2.7506909132700001e+00 2.5325131482500002e+01 2.2550704777800000e+01
232 2 7.0371474721100002e-02 2.5410039483799999e+01 2.2514841391400001e+01
233 1 5.1187728311399998e-02 2.2547088035100000e+01 2.8296552789000000e+01
234 2 2.8057454275000002e+00 2.2627439269800000e+01 2.8102908326300000e+01
235 1 4.3644253018599997e-02 2.5359695688599999e+01 3.1019801861600001e+01
236 2 2.7597651600700002e+00 2.5465902302700002e+01 3.0959929002700001e+01
237 1 2.8323173408200000e+00 2.2579469124700001e+01 3.1091688685499999e+01
238 2 3.3833333307899998e+01 2.2625978256200000e+01 3.1024779312800000e+01
239 1 2.9112669318800002e+00 2.5423321566700000e+01 2.8282421052200000e+01
240 2 8.8472106461700006e-02 2.5440449231300001e+01 2.8124473509300000e+01
241 1 3.3764885719600002e+01 2.8223248350100000e+01 3.3794241336600003e+01
242 2 2.7970304648500002e+00 2.8134765635299999e+01 5.2434332612100003e-02
243 1 7.0899540729100000e-02 3.0946560925400000e+01 2.8233669873500000e+00
244 2 2.7990025859999998e+00 3.1078003063600001e+01 2.8129984600400002e+00
245 1 2.8661618098299999e+00 2.8213220775300002e+01 2.9156496228000002e+00
246 2 3.3823926615200001e+01 2.8297534173900001e+01 2.8030877166599999e+00
247 1 2.7565337302800001e+00 3.1076416212100000e+01 3.3794343800500002e+01
248 2 1.3150946167000001e-02 3.1049203016000000e+01 3.3779935451599997e+01
249 1 3.3746881387099997e+01 2.8297406668699999e+01 5.7034780286200002e+00
250 2 2.7447410509900001e+00 2.8269593885999999e+01 5.5916260403500004e+00
251 1 3.3789456948100003e+01 3.1074523270099998e+01 8.5114724024699999e+00
252 2 2.8891914687900000e+00 3.0947330401599999e+01 8.5095172350499997e+00
253 1 2.8139647748500001e+00 2.8165176681599998e+01 8.5068605755100002e+00
254 2 6.9028616191600001e-02 2.8164492151499999e+01 8.3909623113300000e+00
255 1 2.9183369436700000e+00 3.1103837997799999e+01 5.5979682299600002e+00
256 2 6.2882861599900003e-02 3.0937938644399999e+01 5.7225091814900004e+00
257 1 5.4930447053000001e-02 2.8139372623000000e+01 1.1239137449399999e+01
258 2 2.8391109709700002e+00 2.8171151532800000e+01 1.1327246763200000e+01
259 1 1.8472573868800000e-02 3.0961405730500001e+01 1.4122021902000000e+01
260 2 2.7228118170300002e+00 3.0942349563099999e+01 1.4032241563400000e+01
261 1 2.7907355424000002e+00 2.8102381947700000e+01 1.4185981504700001e+01
262 2 3.3787901791099998e+01 2.8154127710099999e+01 1.4075128465100001e+01
263 1 2.9081477431499998e+00 3.0990363865799999e+01 1.1266226571200001e+01
264 2 3.3799701454500003e+01 3.1115249006999999e+01 1.1252971445000000e+01
265 1 3.3756707484200000e+01 2.8231596478800000e+01 1.6963320984100001e+01
266 2 2.7944482048400001e+00 2.8142277031100001e+01 1.6901850290199999e+01
267 1 3.3827813642099997e+01 3.1119059960700000e+01 1.9811687065099999e+01
268 2 2.8441817796800000e+00 3.0958783589599999e+01 1.9777582904300001e+01
269 1 2.8717998004599998e+00 2.8115077747699999e+01 1.9715897303300000e+01
270 2 3.3805369559500001e+01 2.8214086264500001e+01 1.9770610643700000e+01
271 1 2.7562775576799998e+00 3.1013931887199998e+01 1.7018433577300002e+01
272 2 3.3743170527799997e+01 3.0994198722400000e+01 1.6886862492799999e+01
273 1 3.3821116603999997e+01 2.8273838743100001e+01 2.2547661007700000e+01
274 2 2.8966156003000001e+00 2.8215107968600002e+01 2.2544923538999999e+01
275 1 3.3790460617500003e+01 3.1084722771100001e+01 2.5408840103599999e+01
276 2 2.7624452139800000e+00 3.0946014098700001e+01 2.5305086265700002e+01
277 1 2.9018143925700000e+00 2.8180678307499999e+01 2.5444061558900000e+01
278 2 7.9072418552000007e-02 2.8145266609600000e+01 2.5286514470000000e+01
279 1 2.7560672173100000e+00 3.1074595741100001e+01 2.2463082635199999e+01
280 2 1.2826412003599999e-02 3.0958253353100002e+01 2.2613332136499999e+01
281 1 3.3835875139300001e+01 2.8209815987799999e+01 2.8158681651399998e+01
282 2 2.8113157007399998e+00 2.8109142520599999e+01 2.8261903929399999e+01
283 1 8.1499784675199999e-02 3.1070529503900001e+01 3.1019124454500002e+01
284 2 2.8887568698899999e+00 3.0920764175199999e+01 3.1053191481399999e+01
285 1 2.8734771834599999e+00 2.8165331247400001e+01 3.1091314338200000e+01
286 2 3.3740038000299997e+01 2.8226424042300000e+01 3.0980204796199999e+01
287 1 2.8457255847499998e+00 3.0970271731899999e+01 2.8141955973999998e+01
288 2 2.5232077361099999e-02 3.1019386964100001e+01 2.8137456137699999e+01
289 1 5.7172349859800002e+00 7.6477332397500000e-02 9.9136810058999998e-03
290 2 8.5012192055100009e+00 3.3830277346999999e+01 6.0288672874199999e-02
291 1 5.7067712492600000e+00 2.8728319398600002e+00 2.7686297678599998e+00
292 2 8.3648976920399996e+00 2.8516506156600001e+00 2.8022515388999998e+00
293 1 8.5388521690200001e+00 7.1969505509299994e-02 2.8267504188000001e+00
294 2 5.6154888301300003e+00 4.2597908185100002e-02 2.8618739391000001e+00
295 1 8.4964565786299993e+00 2.8884848108700001e+00 1.5463717049000000e-02
296 2 5.6432086959700003e+00 2.8233816267199998e+00 7.7796131603900004e-02
297 1 5.6133502266899997e+00 6.8383171962100003e-02 5.6409779127500004e+00
298 2 8.3770677901500008e+00 3.3829796397499997e+01 5.5982392795299996e+00
299 1 5.6455770089300001e+00 2.8906619710700001e+00 8.3958911054400005e+00
300 2 8.4550449248599993e+00 2.8365004503500000e+00 8.5139640622999995e+00
301 1 8.5481953925000003e+00 1.0121576247000000e-02 8.5443236037699997e+00
302 2 5.6073117924700000e+00 5.2863954263499997e-02 8.5127450916599994e+00
303 1 8.4702557961499991e+00 2.7547577437499999e+00 5.6172408591299998e+00
304 2 5.5981700236499998e+00 2.9133757238500002e+00 5.6689244922000004e+00
305 1 5.7218075673500000e+00 3.3799231953899998e+01 1.1265788011700000e+01
306 2 8.4734744651400007e+00 3.3810945636699998e+01 1.1271299925399999e+01
307 1 5.6598614114399997e+00 2.7256571948700001e+00 1.4067962230999999e+01
308 2 8.3600443399400000e+00 2.8165075244000000e+00 1.4121600132999999e+01
309 1 8.3785980920099998e+00 3.3788418880400002e+01 1.4160798364200000e+01
310 2 5.7080563119700001e+00 3.3817546650899999e+01 1.4162844746099999e+01
311 1 8.4154280506100001e+00 2.8612216444600000e+00 1.1289091324699999e+01
312 2 5.6280198157800001e+00 2.8512884552300002e+00 1.1182678135800000e+01
313 1 5.5724886885400000e+00 3.3798764692900001e+01 1.6956112522000002e+01
314 2 8.5012470626700001e+00 3.6152164837199997e-02 1.6973523421300001e+01
315 1 5.5559103122000000e+00 2.7411777816799998e+00 1.9811070232100001e+01
316 2 8.4313675505900001e+00 2.8336742580999998e+00 1.9740700561099999e+01
317 1 8.4853325142700005e+00 3.3755389342199997e+01 1.9793958045299998e+01
318 2 5.5646804656300004e+00 3.6274892366800003e-02 1.9720428419800001e+01
319 1 8.4584523272100007e+00 2.8543387468699999e+00 1.6894200550099999e+01
320 2 5.5492074942700000e+00 2.9128423103399999e+00 1.6924535379900000e+01
321 1 5.6884289282099996e+00 6.2589667448300001e-03 2.2623937380499999e+01
322 2 8.4729232358199997e+00 3.3764551375700002e+01 2.2588381312900001e+01
323 1 5.5745481338899996e+00 2.8847308269999998e+00 2.5416212320100001e+01
324 2 8.5479617276299997e+00 2.8458161579099999e+00 2.5325032619500000e+01
325 1 8.4714275091700006e+00 5.4354455391999998e-02 2.5422377659500000e+01
326 2 5.6084593411999997e+00 3.1070230120799999e-02 2.5467053812300001e+01
327 1 8.4969620086200006e+00 2.7934602804500002e+00 2.2642151666099998e+01
328 2 5.7055248385499997e+00 2.8910367520500002e+00 2.2481368275299999e+01
329 1 5.5981657667300002e+00 5.8025560532000003e-02 2.8154961499199999e+01
330 2 8.3747411871100006e+00 3.6653202494499999e-02 2.8259853991300002e+01
331 1 5.6683535616300000e+00 2.7889686672899998e+00 3.1031954663800001e+01
332 2 8.3643039902900007e+00 2.8325323311499999e+00 3.1091360234900002e+01
333 1 8.3756106470000002e+00 3.3816663879300002e+01 3.0952972743499998e+01
334 2 5.6160015793299998e+00 3.3742601534700000e+01 3.1085552583999998e+01
335 1 8.4592486620699994e+00 2.8071836131099999e+00 2.8220358943099999e+01
336 2 5.7100056408500004e+00 2.7782521449600002e+00 2.8153503394500000e+01
337 1 5.5498988415400001e+00 5.5932798187500001e+00 3.3753242369600002e+01
338 2 8.3683116974300003e+00 5.6505461124399998e+00 3.3776766977500003e+01
339 1 5.5548515444100000e+00 8.5433429482799994e+00 2.7497467784900000e+00
340 2 8.3789661581400008e+00 8.5541356116700005e+00 2.8533933927800001e+00
341 1 8.5051508083300007e+00 5.6526407991600003e+00 2.7340779428199999e+00
342 2 5.7083754480800000e+00 5.6236058008400001e+00 2.7984935648799998e+00
343 1 8.3870618488000002e+00 8.3826439771699999e+00 4.4491865820600000e-03
344 2 5.6537487179100001e+00 8.4637371085499993e+00 2.2624935590800001e-02
345 1 5.7155286926200004e+00 5.6408409689900001e+00 5.6158295357399997e+00
346 2 8.4113145405199994e+00 5.6013693284899997e+00 5.6521614106699998e+00
347 1 5.6990744682300001e+00 8.4482242059899999e+00 8.3681524654599997e+00
348 2 8.3976309007500003e+00 8.3781304466800002e+00 8.4266686828099999e+00
349 1 8.4968753316099992e+00 5.6581429463799999e+00 8.4924255179900001e+00
350 2 5.6309190261800000e+00 5.5619561073900003e+00 8.4192511910099999e+00
351 1 8.4621920957800008e+00 8.4594329930099992e+00 5.5887322775800001e+00
352 2 5.7050603116299996e+00 8.4466626672000000e+00 5.7090912250299999e+00
353 1 5.5930985260700004e+00 5.7283879171700001e+00 1.1202371469299999e+01
354 2 8.5138364980999999e+00 5.5440372906000004e+00 1.1227264132700000e+01
355 1 5.7141106608600003e+00 8.4300209999600000e+00 1.4186495898600000e+01
356 2 8.5458834001199993e+00 8.5200385153799996e+00 1.4079221089800001e+01
357 1 8.5316537006900006e+00 5.6314208673900001e+00 1.4025234439000000e+01
358 2 5.7103916737800002e+00 5.7032493408800002e+00 1.4027113088100000e+01
359 1 8.5333053034000006e+00 8.4637926106200005e+00 1.1328718151700000e+01
360 2 5.5936352041599999e+00 8.4030922967600006e+00 1.1349662563000001e+01
361 1 5.6600427596099996e+00 5.5695410931199998e+00 1.6893174017300002e+01
362 2 8.5318071636399999e+00 5.6336567163400000e+00 1.6887370579100001e+01
363 1 5.6081907729799996e+00 8.5249288404500003e+00 1.9730859805500000e+01
364 2 8.5496707005499992e+00 8.4224400301800006e+00 1.9791296065800001e+01
365 1 8.4171410985400001e+00 5.6935677603999997e+00 1.9643519595299999e+01
366 2 5.5659641963100004e+00 5.5918513813099997e+00 1.9814018392900000e+01
367 1 8.4244996752700008e+00 8.4567051082399995e+00 1.6841408904000001e+01
368 2 5.6533356572000004e+00 8.3791989067900001e+00 1.6848320467600001e+01
369 1 5.7001944790400003e+00 5.5887820572500004e+00 2.2472250742200000e+01
370 2 8.4803649760499997e+00 5.5693000312000001e+00 2.2470563344700000e+01
371 1 5.7061104633099999e+00 8.4394365641900002e+00 2.5453095015199999e+01
372 2 8.5088062936100002e+00 8.4001928059999997e+00 2.5296962259200001e+01
373 1 8.3942714504799998e+00 5.6389160328900001e+00 2.5351549627899999e+01
374 2 5.7063964086299999e+00 5.6338481686100002e+00 2.5390949940100001e+01
375 1 8.4374904488899993e+00 8.5109800676699994e+00 2.2597787958300000e+01
376 2 5.6771544668200002e+00 8.5143188776799992e+00 2.2539721225699999e+01
377 1 5.5638171682499999e+00 5.7035866888299998e+00 2.8169104497100001e+01
378 2 8.4983525232100003e+00 5.7376931818700001e+00 2.8240352347100000e+01
379 1 5.7213371462299998e+00 8.3626709897300007e+00 3.1040743494000001e+01
380 2 8.3794645384400006e+00 8.5345009261599998e+00 3.1112049550599998e+01
381 1 8.3668307155099999e+00 5.5666522700699996e+00 3.1086552207000000e+01
382 2 5.6773772854000004e+00 5.7363315553199996e+00 3.1071301839000000e+01
383 1 8.4788380149000009e+00 8.4678486507400006e+00 2.8101973471899999e+01
384 2 5.6967629408400002e+00 8.4368003572799992e+00 2.8121330639899998e+01
385 1 5.6493669594200000e+00 1.1253992547999999e+01 2.1171590990499999e-02
386 2 8.3633344253399997e+00 1.1212995222300000e+01 7.9661859637099996e-03
387 1 5.6619814832399999e+00 1.4016442831899999e+01 2.8472755750899998e+00
388 2 8.5282442296699994e+00 1.4057356725200000e+01 2.8242661557300002e+00
389 1 8.5412238549800001e+00 1.1320591937000000e+01 2.7613444655900001e+00
390 2 5.7332985350000003e+00 1.1248415008800000e+01 2.8848404881700001e+00
391 1 8.4505034951399995e+00 1.4157953512400001e+01 8.4184534826099999e-02
392 2 5.7205446667800004e+00 1.4160920492100001e+01 3.3804594466200001e+01
393 1 5.7225259328900000e+00 1.1210667954800000e+01 5.5920389953200003e+00
394 2 8.4892706448100004e+00 1.1329636224000000e+01 5.5500672566400002e+00
395 1 5.5937728344000002e+00 1.4073806642699999e+01 8.5294493048700009e+00
396 2 8.3603834715099996e+00 1.4177999116000001e+01 8.4269461116900004e+00
397 1 8.4833147107499993e+00 1.1367152157400000e+01 8.3723197089799992e+00
398 2 5.6490506908900002e+00 1.1224443498399999e+01 8.5004494972000000e+00
399 1 8.5235636659399994e+00 1.4049249888800000e+01 5.7119789142500004e+00
400 2 5.5754826941099997e+00 1.4096014453800001e+01 5.5662565222399998e+00
401 1 5.6015033414400000e+00 1.1254825377600000e+01 1.1319053383000000e+01
402 2 8.4233700238400004e+00 1.1285931065000000e+01 1.1310264042600000e+01
403 1 5.6971470644600002e+00 1.4058707685800000e+01 1.4011269887799999e+01
404 2 8.4074104153700002e+00 1.4109189395400000e+01 1.4175535451600000e+01
405 1 8.4915089737800002e+00 1.1301455762100000e+01 1.4006354484999999e+01
406 2 5.6396073638399997e+00 1.1246180359600000e+01 1.4069483285300000e+01
407 1 8.5518776090999999e+00 1.4032693481000001e+01 1.1197673543600001e+01
408 2 5.6010178321400002e+00 1.4128539668500000e+01 1.1233921716999999e+01
409 1 5.6811641720799999e+00 1.1319018373900001e+01 1.6907638815199999e+01
410 2 8.5269398585600005e+00 1.1244756708400001e+01 1.6944638758699998e+01
411 1 5.6480045944799997e+00 1.4014338824499999e+01 1.9709445153800001e+01
412 2 8.4726277104999994e+00 1.4195211488900000e+01 1.9796730329399999e+01
413 1 8.4561813992200001e+00 1.1219294094500000e+01 1.9693992494000000e+01
414 2 5.5484848043800001e+00 1.1296316162400000e+01 1.9724846045400000e+01
415 1 8.4917085494600002e+00 1.4106292506599999e+01 1.6903356827600000e+01
416 2 5.6104051949900002e+00 1.4008124449300000e+01 1.7016593414100001e+01
417 1 5.5550394577000004e+00 1.1185093218000000e+01 2.2503060583600000e+01
418 2 8.3872372493299991e+00 1.1338886567399999e+01 2.2490325932899999e+01
419 1 5.6079900133900003e+00 1.4002649676200001e+01 2.5466313817500001e+01
420 2 8.4242080789100005e+00 1.4168575682500000e+01 2.5472386968300000e+01
421 1 8.5054904041599997e+00 1.1232148370899999e+01 2.5378429094900000e+01
422 2 5.6965303878000002e+00 1.1319729231400000e+01 2.5445514339599999e+01
423 1 8.4689148485400008e+00 1.4131500521000000e+01 2.2532639244799999e+01
424 2 5.5782812574499996e+00 1.4139448053200001e+01 2.2460576468199999e+01
425 1 5.6967761882600003e+00 1.1181446644099999e+01 2.8223360184099999e+01
426 2 8.4789227701299996e+00 1.1201102484200000e+01 2.8218440458400000e+01
427 1 5.6915694126499998e+00 1.4107198391600001e+01 3.1054552110100001e+01
428 2 8.5017343425400007e+00 1.4041181976500001e+01 3.1105323301300000e+01
429 1 8.4255082898100007e+00 1.1296740391200000e+01 3.0940636577700001e+01
430 2 5.7392810034100004e+00 1.1310828221700000e+01 3.1012357126700000e+01
431 1 8.4732239492599994e+00 1.4005437664500000e+01 2.8148015929200000e+01
432 2 5.7349378113200000e+00 1.4016206304000001e+01 2.8128340178799998e+01
433 1 5.6546154522299998e+00 1.6974794425100001e+01 7.0574632056799994e-02
434 2 8.5322456565699998e+00 1.6972044431299999e+01 3.3809531547100001e+01
435 1 5.6563162307799999e+00 1.9802624623700002e+01 2.7477691683000001e+00
436 2 8.3762841146299998e+00 1.9731717039199999e+01 2.7820680672900000e+00
437 1 8.3607469460099999e+00 1.6923372703500000e+01 2.7945955552799999e+00
438 2 5.7166269088700004e+00 1.6886835205099999e+01 2.8525342127200002e+00
439 1 8.4736156760900005e+00 1.9699933322000000e+01 3.3833522411300002e+01
440 2 5.6135319921600004e+00 1.9687517209999999e+01 3.3757624507599999e+01
441 1 5.5504242651600002e+00 1.6864540624499998e+01 5.5566638570200002e+00
442 2 8.3901262490399997e+00 1.6844983977100000e+01 5.6146597760499999e+00
443 1 5.5876347702000002e+00 1.9640881773299999e+01 8.3665824235400006e+00
444 2 8.5580107230699998e+00 1.9689028896699998e+01 8.3681655202799998e+00
445 1 8.4852019579599993e+00 1.6930328209500001e+01 8.4377703038400007e+00
446 2 5.6866663667399999e+00 1.7007396580300000e+01 8.4392710504800004e+00
447 1 8.4350651653799993e+00 1.9742836669599999e+01 5.5868952199399997e+00
448 2 5.5747947821699997e+00 1.9717736203200001e+01 5.6754038054800002e+00
449 1 5.5429540009800000e+00 1.6847679049500002e+01 1.1341621624300000e+01
450 2 8.4264290583299992e+00 1.6931831182800000e+01 1.1191098737100001e+01
451 1 5.6501547020100000e+00 1.9645547618700000e+01 1.4041451687200000e+01
452 2 8.4495793597100004e+00 1.9744762460299999e+01 1.4025061677900000e+01
453 1 8.4518073395800002e+00 1.6976096700300001e+01 1.4141157483100001e+01
454 2 5.6138159288400002e+00 1.6919228936300001e+01 1.4159800558500001e+01
455 1 8.4126352125199997e+00 1.9668044095700001e+01 1.1373801444500000e+01
456 2 5.7146014696799998e+00 1.9814837569500000e+01 1.1275434452300001e+01
457 1 5.5470704176399996e+00 1.6968592701700000e+01 1.6978031571700001e+01
458 2 8.5530261577199997e+00 1.6827156111899999e+01 1.6982562331699999e+01
459 1 5.6073596243399999e+00 1.9773317942799999e+01 1.9820112059200000e+01
460 2 8.4103236209399999e+00 1.9838685643900000e+01 1.9647569738300000e+01
461 1 8.3829431171500008e+00 1.6916135548200000e+01 1.9783790163300001e+01
462 2 5.7252987864599998e+00 1.6989454289499999e+01 1.9834102668300002e+01
463 1 8.4482717278799999e+00 1.9721263078400000e+01 1.6937890018499999e+01
464 2 5.6783897954000002e+00 1.9820576231000000e+01 1.6938404685199998e+01
465 1 5.7211935899200004e+00 1.6903135673200001e+01 2.2614271686999999e+01
466 2 8.5596134913499995e+00 1.6835753940899998e+01 2.2601448807400001e+01
467 1 5.7206319717799996e+00 1.9818898180900000e+01 2.5454551718099999e+01
468 2 8.4157494313400001e+00 1.9721260181000002e+01 2.5381619339200000e+01
469 1 8.5539345625200003e+00 1.6873112514100001e+01 2.5412099220199998e+01
470 2 5.6919558282900002e+00 1.6849337646399999e+01 2.5454068759300000e+01
471 1 8.4610458045700003e+00 1.9831259175300001e+01 2.2637938231500002e+01
472 2 5.7294877943699998e+00 1.9676563589000001e+01 2.2626929813400000e+01
473 1 5.7125638696200003e+00 1.7009455662699999e+01 2.8229909408299999e+01
474 2 8.4337064125599994e+00 1.6937378417300000e+01 2.8131576419100000e+01
475 1 5.7392372351200001e+00 1.9784443997899999e+01 3.0987911341899999e+01
476 2 8.5437749432499999e+00 1.9782478175000001e+01 3.0986624908800000e+01
477 1 8.5458769010900006e+00 1.6884868374700002e+01 3.0983992204700002e+01
478 2 5.5459449391800000e+00 1.6960181618600000e+01 3.0941600315399999e+01
479 1 8.3697344493300001e+00 1.9771213551300001e+01 2.8293671041400000e+01
480 2 5.5528352581000000e+00 1.9791969353399999e+01 2.8145732098400000e+01
481 1 5.7122466097600002e+00 2.2462428857100001e+01 3.3778829850199998e+01
482 2 8.5550290542099994e+00 2.2575078094999999e+01 3.3766343823699998e+01
483 1 5.5409438714299997e+00 2.5361806442900001e+01 2.8068852882900002e+00
484 2 8.4665606792899997e+00 2.5416159582500001e+01 2.7507950276300002e+00
485 1 8.4236725426299994e+00 2.2470597144300001e+01 2.9193007730899998e+00
486 2 5.6247700622699996e+00 2.2595697022200000e+01 2.7770526428100002e+00
487 1 8.3884435754000002e+00 2.5318706910800000e+01 3.3743038068700002e+01
488 2 5.6776557202299998e+00 2.5477937908299999e+01 3.3758320187400003e+01
489 1 5.5730479980899998e+00 2.2620339365200000e+01 5.6672777926500002e+00
490 2 8.5495599622400000e+00 2.2532942413099999e+01 5.6256124725500003e+00
491 1 5.5972805050399996e+00 2.5440877838599999e+01 8.3975032629699999e+00
492 2 8.4359601773899993e+00 2.5411879607500001e+01 8.5426768276199994e+00
493 1 8.5225659232499993e+00 2.2476992523200000e+01 8.5328158988999991e+00
494 2 5.6982651331399996e+00 2.2554146873499999e+01 8.4707553184400002e+00
495 1 8.4486426475300007e+00 2.5291092465700000e+01 5.6040563846999998e+00
496 2 5.7226169050399998e+00 2.5399727657600000e+01 5.5596363784399996e+00
497 1 5.6502881812499997e+00 2.2583686227600001e+01 1.1342247726000000e+01
498 2 8.4763171524600001e+00 2.2500268759299999e+01 1.1373985687699999e+01
499 1 5.5992529778400000e+00 2.5425072786699999e+01 1.4137545089400000e+01
500 2 8.5446553496500002e+00 2.5433005368500002e+01 1.4077540992199999e+01
501 1 8.3696034846800007e+00 2.2591267561399999e+01 1.4002377067999999e+01
502 2 5.5504805822199996e+00 2.2464632248000001e+01 1.4114626096500000e+01
503 1 8.5174885022900000e+00 2.5294050411800001e+01 1.1243859298300000e+01
504 2 5.6158359009899996e+00 2.5459886276500001e+01 1.1309267215800000e+01
505 1 5.6209501996100002e+00 2.2644401751800000e+01 1.6957426241600000e+01
506 2 8.4944492937699998e+00 2.2602418655400001e+01 1.6928365577600001e+01
507 1 5.6334997064700003e+00 2.5474498324700001e+01 1.9754365403000001e+01
508 2 8.4412395254800003e+00 2.5298715206099999e+01 1.9678451869400000e+01
509 1 8.5566579169699999e+00 2.2652340915400000e+01 1.9640595227399999e+01
510 2 5.5555590309499996e+00 2.2595778092900002e+01 1.9683603323300002e+01
511 1 8.4927306037200001e+00 2.5321964399599999e+01 1.6899368530299999e+01
512 2 5.6051772389899996e+00 2.5329296729799999e+01 1.6975022884700000e+01
513 1 5.6007627654399998e+00 2.2642931030500002e+01 2.2497744161699998e+01
514 2 8.5389872217700002e+00 2.2490697710599999e+01 2.2519188905299998e+01
515 1 5.7367405883200000e+00 2.5289463588099999e+01 2.5447658898099998e+01
516 2 8.3927366789699995e+00 2.5383819149400001e+01 2.5471639996000000e+01
517 1 8.3837859791400007e+00 2.2535380702400001e+01 2.5381635992900001e+01
518 2 5.6704465027299999e+00 2.2527247620400001e+01 2.5329749353499999e+01
519 1 8.5415640617600008e+00 2.5281613621599998e+01 2.2656244633699998e+01
520 2 5.5698607945000003e+00 2.5326206033399998e+01 2.2606326246999998e+01
521 1 5.6906122390400000e+00 2.2562603822100002e+01 2.8104309498900001e+01
522 2 8.4045320649100006e+00 2.2501597269099999e+01 2.8278463458099999e+01
523 1 5.6317669439799998e+00 2.5433488610300000e+01 3.1101247125600000e+01
524 2 8.4386302054100000e+00 2.5464776882799999e+01 3.1056082886300000e+01
525 1 8.4809719869600002e+00 2.2550136257900000e+01 3.1008422299500001e+01
526 2 5.6047973228699997e+00 2.2515780702899999e+01 3.1017028862200000e+01
527 1 8.4415320985500006e+00 2.5332463435200001e+01 2.8114745211999999e+01
528 2 5.7346538580099997e+00 2.5394546291200001e+01 2.8167193403399999e+01
529 1 5.7080615629200002e+00 2.8197409536999999e+01 6.7169337203000001e-02
530 2 8.3929533221800003e+00 2.8129119467999999e+01 3.3787052312299998e+01
531 1 5.7120454911099996e+00 3.1072924026100001e+01 2.7856081693500001e+00
532 2 8.5467070846700004e+00 3.1092070841300000e+01 2.7976161058500000e+00
533 1 8.4799714464699996e+00 2.8296966560800001e+01 2.8612597665799999e+00
534 2 5.5795481141899996e+00 2.8219726033899999e+01 2.8982502151400000e+00
535 1 8.4664654697900001e+00 3.1013475099600001e+01 4.9078798109400003e-02
536 2 5.6308088455899998e+00 3.1046628712899999e+01 3.3741405362700000e+01
537 1 5.6925621962599999e+00 2.8292205862100001e+01 5.7090443659399996e+00
538 2 8.5233422779300003e+00 2.8194717533199999e+01 5.6870719033199997e+00
539 1 5.6378318206899998e+00 3.0942708489600001e+01 8.3667070577900002e+00
540 2 8.4296391953800001e+00 3.1087326091500000e+01 8.4540330010500000e+00
541 1 8.3822047371299995e+00 2.8106711059900000e+01 8.4655716889899999e+00
542 2 5.5896818293799999e+00 2.8227743643800000e+01 8.4191457440799997e+00
543 1 8.4487187500799994e+00 3.0948278091599999e+01 5.6211643088400001e+00
544 2 5.6537257455000001e+00 3.1026094252600000e+01 5.5604346052000002e+00
545 1 5.7120081055099998e+00 2.8242775720699999e+01 1.1209766261900000e+01
546 2 8.3820505302299999e+00 2.8134672841200000e+01 1.1262048638600000e+01
547 1 5.5889663236400002e+00 3.0965730213699999e+01 1.4125529630500001e+01
548 2 8.3838818261100005e+00 3.0962602030900001e+01 1.4182889879399999e+01
549 1 8.3835396071500004e+00 2.8144554679199999e+01 1.4181699055299999e+01
550 2 5.6962126719899997e+00 2.8189653714199999e+01 1.4193909473800000e+01
551 1 8.4253856478800007e+00 3.1038740951299999e+01 1.1220673467099999e+01
552 2 5.6318457965800004e+00 3.0969060723500000e+01 1.1324152365800000e+01
553 1 5.5768404662200002e+00 2.8277200178299999e+01 1.6999387928400001e+01
554 2 8.5137120792199994e+00 2.8277186295600000e+01 1.6880476745700001e+01
555 1 5.5503579769100000e+00 3.1101662838500001e+01 1.9755374109400002e+01
556 2 8.3687890860599996e+00 3.1075187669799998e+01 1.9704303009800000e+01
557 1 8.5504014791100005e+00 2.8296922995300001e+01 1.9760528193300001e+01
558 2 5.7215676189000000e+00 2.8171408631100000e+01 1.9694930697899999e+01
559 1 8.5060344046700003e+00 3.1031770941700000e+01 1.6824939443400002e+01
560 2 5.6097457962800004e+00 3.0921727241799999e+01 1.6881810216600002e+01
561 1 5.6335379155399998e+00 2.8172390331900001e+01 2.2564828688799999e+01
562 2 8.3658950877400002e+00 2.8289783026399999e+01 2.2502222023700000e+01
563 1 5.5568246928600002e+00 3.1041211629700001e+01 2.5414209414799998e+01
564 2 8.4241756502200005e+00 3.1103091092000000e+01 2.5310905599500000e+01
565 1 8.3944006406499998e+00 2.8268726789799999e+01 2.5369826732000000e+01
566 2 5.6519565918600003e+00 2.8253557906099999e+01 2.5375103542300000e+01
567 1 8.5380914678100002e+00 3.0964780416800000e+01 2.2557909034000001e+01
568 2 5.5739812010499996e+00 3.0967585799999998e+01 2.2582677748500000e+01
569 1 5.6603996877500000e+00 2.8176261577700000e+01 2.8101830416100000e+01
570 2 8.4496645217200008e+00 2.8153944274699999e+01 2.8299055950700001e+01
571 1 5.6556920967000002e+00 3.1097135802499999e+01 3.1058250463899999e+01
572 2 8.3782849064300002e+00 3.1018139146900001e+01 3.1109941296500001e+01
573 1 8.4662728272300001e+00 2.8128277088899999e+01 3.1072495868499999e+01
574 2 5.6956014787200004e+00 2.8246907368100000e+01 3.1052143452199999e+01
575 1 8.5301774165900000e+00 3.1006063749999999e+01 2.8168065408499999e+01
576 2 5.7191223195400003e+00 3.0937151218499999e+01 2.8293822373400001e+01
577 1 1.1215681236200000e+01 3.3806863109799998e+01 6.0372093639900003e-02
578 2 1.4024983245100000e+01 3.3814578050999998e+01 2.9763986359399999e-02
579 1 1.1246117575500000e+01 2.8889957390399998e+00 2.7788806120100000e+00
580 2 1.4117965630100000e+01 2.7905251619300002e+00 2.7419324205500000e+00
581 1 1.4055685512600000e+01 6.3232294152499993e-02 2.7833885836799999e+00
582 2 1.1249061595100001e+01 7.7712846641199998e-02 2.9031511960700001e+00
583 1 1.4114807792800001e+01 2.7420800035199999e+00 3.3791842119099996e+01
584 2 1.1338301074700000e+01 2.7958459860099998e+00 8.5642235185500001e-02
585 1 1.1255836455500001e+01 9.7406614339799996e-02 5.6711119433399997e+00
586 2 1.4055750965300000e+01 9.4389509754399994e-03 5.7000667697300003e+00
587 1 1.1229637637200000e+01 2.7790466549100001e+00 8.4432830259100005e+00
588 2 1.4072573629400001e+01 2.9078949093499999e+00 8.4894331872900004e+00
589 1 1.4117970207600001e+01 8.9348877347000005e-02 8.4403922920299994e+00
590 2 1.1317239843399999e+01 3.3773710009600002e+01 8.5267754398500006e+00
591 1 1.4065629218400000e+01 2.8156210522800000e+00 5.5454914166500000e+00
592 2 1.1209375308700000e+01 2.8828737003399998e+00 5.6751558915200002e+00
593 1 1.1180985337699999e+01 5.2350580821199998e-02 1.1305362356400000e+01
594 2 1.4189597290300000e+01 8.6089157282800005e-02 1.1264356775700000e+01
595 1 1.1202228128700000e+01 2.8039041340800002e+00 1.4079363361300000e+01
596 2 1.4100004425300000e+01 2.7698546175100001e+00 1.4065246228600000e+01
597 1 1.4012805356099999e+01 5.0481745725399998e-02 1.4055869516300000e+01
598 2 1.1316164650999999e+01 3.3795345660300001e+01 1.4168272388300000e+01
599 1 1.4047649163799999e+01 2.7441206873600001e+00 1.1336201316300000e+01
600 2 1.1225618050400000e+01 2.7549130136200000e+00 1.1294191038799999e+01
601 1 1.1192493415800000e+01 1.1702730899400000e-02 1.6823673142099999e+01
602 2 1.4085678750500000e+01 3.3823057800500003e+01 1.6837088065400000e+01
603 1 1.1196413993500000e+01 2.8374088689499999e+00 1.9640823965599999e+01
604 2 1.4146344219100000e+01 2.7937114332299999e+00 1.9692565140799999e+01
605 1 1.4190208592399999e+01 3.3744474279700000e+01 1.9765392874400000e+01
606 2 1.1183573270500000e+01 3.3816400518700000e+01 1.9702511817200001e+01
607 1 1.4016068399000000e+01 2.8766379580399999e+00 1.6934371846499999e+01
608 2 1.1195467269200000e+01 2.9154339126200002e+00 1.6842148255800002e+01
609 1 1.1278415686400001e+01 3.3746101919499999e+01 2.2541164093999999e+01
610 2 1.4098315157800000e+01 7.1261489667200001e-02 2.2595509131600000e+01
611 1 1.1250455511300000e+01 2.7568602205800001e+00 2.5289043785200001e+01
612 2 1.4065702501400001e+01 2.7325652378099998e+00 2.5315181156600001e+01
613 1 1.4130149470799999e+01 3.3780310103700003e+01 2.5354783675600000e+01
614 2 1.1181417582400000e+01 8.2535128148699996e-02 2.5448171424000002e+01
615 1 1.4018923968099999e+01 2.8569137242900000e+00 2.2558357336099998e+01
616 2 1.1344378372600000e+01 2.7557485144800000e+00 2.2496020860400002e+01
617 1 1.1370800541600000e+01 3.3781652698400002e+01 2.8186998575699999e+01
618 2 1.4033444934200000e+01 3.3804997138200001e+01 2.8166089287300000e+01
619 1 1.1301541297100000e+01 2.8258259441300000e+00 3.1111355365400001e+01
620 2 1.4161566265499999e+01 2.8686897122900001e+00 3.0979342961800000e+01
621 1 1.4060574579100001e+01 3.3831500882699999e+01 3.0978673248800000e+01
622 2 1.1217156787900000e+01 3.3779336084199997e+01 3.0995819569599998e+01
623 1 1.4067241209900001e+01 2.9082200254999999e+00 2.8221005261799998e+01
624 2 1.1353964776300000e+01 2.7397237701199999e+00 2.8107826406800001e+01
625 1 1.1346746191999999e+01 5.6274650710399996e+00 1.0133863072700000e-02
626 2 1.4054543009500000e+01 5.6266429964100002e+00 3.3766539826399999e+01
627 1 1.1378326200700000e+01 8.4699301478199995e+00 2.7397636247200001e+00
628 2 1.4170315464600000e+01 8.4460159218200008e+00 2.8470394569100002e+00
629 1 1.4031450293000001e+01 5.6191177044199998e+00 2.8195973920999999e+00
630 2 1.1279450519299999e+01 5.7039512189000003e+00 2.8191578878799999e+00
631 1 1.4060499956699999e+01 8.4135510250499994e+00 3.3801540371300000e+01
632 2 1.1274466851400000e+01 8.4128589530299998e+00 3.3746189297999997e+01
633 1 1.1219847227700001e+01 5.6556311507899997e+00 5.5941066981800001e+00
634 2 1.4066365882600000e+01 5.5917155505900000e+00 5.5593546781200001e+00
635 1 1.1216078649000000e+01 8.4108961452600006e+00 8.5278699979300008e+00
636 2 1.4044245143900000e+01 8.5256795637800007e+00 8.5086599216399996e+00
637 1 1.4194858903700000e+01 5.6907180288500001e+00 8.3830226108100003e+00
638 2 1.1368008550600001e+01 5.7084189242000001e+00 8.4487257203299997e+00
639 1 1.4086717788600000e+01 8.3661908566999994e+00 5.5835283076400000e+00
640 2 1.1322977223100001e+01 8.3821053598800006e+00 5.7383489785900004e+00
641 1 1.1184336494700000e+01 5.7381946921500004e+00 1.1239241514500000e+01
642 2 1.4092173042800001e+01 5.6490942904599999e+00 1.1237910637200001e+01
643 1 1.1224099514100001e+01 8.3701138390499992e+00 1.4164686600900000e+01
644 2 1.4194461874200000e+01 8.3851114951800003e+00 1.4171966167700001e+01
645 1 1.4144107889400001e+01 5.6900450682399999e+00 1.4077561092100000e+01
646 2 1.1191514981999999e+01 5.6780846247200003e+00 1.4192425285700001e+01
647 1 1.4131751649300000e+01 8.4068104627199993e+00 1.1287347052800000e+01
648 2 1.1204335028599999e+01 8.5035757092300006e+00 1.1314572838800000e+01
649 1 1.1269358799899999e+01 5.5417328987400003e+00 1.6832073214400001e+01
650 2 1.4136395537300000e+01 5.6784826686700001e+00 1.6935041865399999e+01
651 1 1.1225538244599999e+01 8.4926263174399992e+00 1.9661101040300000e+01
652 2 1.4125536114999999e+01 8.4744635815899994e+00 1.9711098727300001e+01
653 1 1.4043833208300001e+01 5.6849165406699997e+00 1.9676198391000000e+01
654 2 1.1211470931599999e+01 5.6665528238100000e+00 1.9772124906199998e+01
655 1 1.4020393819600001e+01 8.4124576614100004e+00 1.6839719206800002e+01
656 2 1.1362766292500000e+01 8.3616773030200005e+00 1.6890202315500002e+01
657 1 1.1211364201500000e+01 5.6333989753999996e+00 2.2641367471500001e+01
658 2 1.4141475275299999e+01 5.6120347509200004e+00 2.2497330739100001e+01
659 1 1.1321002426800000e+01 8.4683831745999996e+00 2.5424057993900000e+01
660 2 1.4008971057200000e+01 8.3946281248299996e+00 2.5343974660299999e+01
661 1 1.4093307339400001e+01 5.6538892040700004e+00 2.5392418798900000e+01
662 2 1.1288583132399999e+01 5.6532232682099997e+00 2.5363495124600000e+01
663 1 1.4055762569800001e+01 8.4636259081799992e+00 2.2484372102700000e+01
664 2 1.1329854274000001e+01 8.5505871447599997e+00 2.2470819297500000e+01
665 1 1.1336465428200000e+01 5.5847665782300000e+00 2.8167282271000001e+01
666 2 1.4006707635100000e+01 5.7338171593800000e+00 2.8212419121100002e+01
667 1 1.1196316286400000e+01 8.4243111269100002e+00 3.1115456213200002e+01
668 2 1.4012008251499999e+01 8.5435812210899993e+00 3.0975902089800002e+01
669 1 1.4015577420200000e+01 5.6649291614399999e+00 3.1099247294100000e+01
670 2 1.1253283140900001e+01 5.6093241797199997e+00 3.0972473904499999e+01
671 1 1.4062249437700000e+01 8.3735063469599993e+00 2.8201054215700001e+01
672 2 1.1248313616100001e+01 8.3932284597500004e+00 2.8244474045800001e+01
673 1 1.1358647427699999e+01 1.1341430880900001e+01 3.3767109307600002e+01
674 2 1.4182708014499999e+01 1.1261761612500001e+01 8.2917422793999995e-02
675 1 1.1196727327200000e+01 1.4196757984600000e+01 2.7393479016400000e+00
676 2 1.4149084961600000e+01 1.4142882595800000e+01 2.8714335072099999e+00
677 1 1.4048932810900000e+01 1.1329585930300000e+01 2.8225802386200001e+00
678 2 1.1189409888200000e+01 1.1199505819200001e+01 2.7760474614000001e+00
679 1 1.4169489789300000e+01 1.4085116553200001e+01 3.3794808782300002e+01
680 2 1.1286980303900000e+01 1.4066043793500000e+01 3.3801615290900003e+01
681 1 1.1219640408900000e+01 1.1250259333900001e+01 5.5731387080200001e+00
682 2 1.4114820840800000e+01 1.1255367656100001e+01 5.5478849520100004e+00
683 1 1.1223224098599999e+01 1.4095682545400001e+01 8.4156056151899996e+00
684 2 1.4176466853000001e+01 1.4011647643000000e+01 8.4895853192999997e+00
685 1 1.4172197098400000e+01 1.1364161831100001e+01 8.4568408668200004e+00
686 2 1.1260620687199999e+01 1.1187130235900000e+01 8.4529292151799993e+00
687 1 1.4129980644900000e+01 1.4067644392300000e+01 5.5723481934999999e+00
688 2 1.1274124524099999e+01 1.4032463728700000e+01 5.6515868725100002e+00
689 1 1.1271399212300000e+01 1.1378961451400000e+01 1.1212579100499999e+01
690 2 1.4127042515899999e+01 1.1219883060700001e+01 1.1263694277600001e+01
691 1 1.1329487561000001e+01 1.4099432017200000e+01 1.4072139839400000e+01
692 2 1.4177826650500000e+01 1.4174425917900001e+01 1.4076505809900000e+01
693 1 1.4018932599199999e+01 1.1248573274700000e+01 1.4037323544300000e+01
694 2 1.1328974449900000e+01 1.1307711981900001e+01 1.4101028681300001e+01
695 1 1.4003274900599999e+01 1.4193218450500000e+01 1.1182693508000000e+01
696 2 1.1285489903800000e+01 1.4086328874900000e+01 1.1232378852400000e+01
697 1 1.1357999418300000e+01 1.1248612100100001e+01 1.6933021506700001e+01
698 2 1.4026112520200000e+01 1.1190487793000001e+01 1.6988045082300001e+01
699 1 1.1205773841299999e+01 1.4027050707600001e+01 1.9771367881200000e+01
700 2 1.4042980338000000e+01 1.4156174660300000e+01 1.9654931572799999e+01
701 1 1.4006236398700000e+01 1.1255855870200000e+01 1.9813392071999999e+01
702 2 1.1206892783300001e+01 1.1181057788600000e+01 1.9736417124799999e+01
703 1 1.4089777359099999e+01 1.4087593362000000e+01 1.6865970177600001e+01
704 2 1.1322056345300000e+01 1.4170331820299999e+01 1.6910781751700000e+01
705 1 1.1365181703699999e+01 1.1323337942600000e+01 2.2475356613399999e+01
706 2 1.4188087529700001e+01 1.1258577970899999e+01 2.2585653114799999e+01
707 1 1.1215094941400000e+01 1.4104247592400000e+01 2.5324095223200001e+01
708 2 1.4130960528499999e+01 1.4061172173199999e+01 2.5479364583199999e+01
709 1 1.4021778524500000e+01 1.1292801422900000e+01 2.5316713690499999e+01
710 2 1.1239088358700000e+01 1.1352072247800001e+01 2.5380255182999999e+01
711 1 1.4017802334000001e+01 1.4145722428299999e+01 2.2548819779500000e+01
712 2 1.1196537129999999e+01 1.4096911403100000e+01 2.2549105575900001e+01
713 1 1.1296757532199999e+01 1.1266875578300001e+01 2.8220180336500000e+01
714 2 1.4140767956900000e+01 1.1377892449000001e+01 2.8211525002199998e+01
715 1 1.1268123481200000e+01 1.4142409289100000e+01 3.1102771803300001e+01
716 2 1.4004601637300000e+01 1.4007212088199999e+01 3.1115464664499999e+01
717 1 1.4109201711100001e+01 1.1190355331899999e+01 3.1052074593899999e+01
718 2 1.1199305534600001e+01 1.1201228760499999e+01 3.1000546630700001e+01
719 1 1.4132740511100000e+01 1.4164024106099999e+01 2.8270773894100000e+01
720 2 1.1257355832500000e+01 1.4196036378900001e+01 2.8127893088200000e+01
721 1 1.1314142731100000e+01 1.6866325790600001e+01 4.1646483029699997e-02
722 2 1.4093867995100000e+01 1.6826058631500000e+01 3.3748931585100003e+01
723 1 1.1239180548400000e+01 1.9659483250299999e+01 2.8576151270299999e+00
724 2 1.4092150652799999e+01 1.9768803190900002e+01 2.8533202349500000e+00
725 1 1.4009499371200000e+01 1.6902916979200000e+01 2.8565766352600002e+00
726 2 1.1360623116799999e+01 1.7009199737500001e+01 2.7965413846699998e+00
727 1 1.4115269386600000e+01 1.9826803770600002e+01 3.3749035614800000e+01
728 2 1.1375237624800000e+01 1.9730957856100002e+01 6.9869659153199995e-02
729 1 1.1213566217100000e+01 1.7007168681300001e+01 5.6948912391200004e+00
730 2 1.4130585837000000e+01 1.6854612492200001e+01 5.6276544719999997e+00
731 1 1.1297137892000000e+01 1.9720389891100002e+01 8.5385740471999991e+00
732 2 1.4110157412800000e+01 1.9657810657500001e+01 8.5350672916499999e+00
733 1 1.4062261486100001e+01 1.6854314174999999e+01 8.4885760407100008e+00
734 2 1.1341594716600000e+01 1.6878060901800001e+01 8.4574769183599994e+00
735 1 1.4193596279599999e+01 1.9728392314099999e+01 5.6146107262899996e+00
736 2 1.1290084375099999e+01 1.9781416074399999e+01 5.6686461133700004e+00
737 1 1.1186639231199999e+01 1.7007932882599999e+01 1.1271703977300000e+01
738 2 1.4140844193300000e+01 1.6939732376500000e+01 1.1212845849600001e+01
739 1 1.1378948245400000e+01 1.9797423543699999e+01 1.4134544891999999e+01
740 2 1.4053939212400000e+01 1.9678294309300000e+01 1.4017928135300000e+01
741 1 1.4111527389100001e+01 1.6862220215699999e+01 1.4084182765800000e+01
742 2 1.1332209686600001e+01 1.6941313826399998e+01 1.4063502031200001e+01
743 1 1.4018567980900000e+01 1.9701635266299999e+01 1.1219460815300000e+01
744 2 1.1289053219900000e+01 1.9724480703400001e+01 1.1251760494799999e+01
745 1 1.1257273989200000e+01 1.6901598428000000e+01 1.6905242821100000e+01
746 2 1.4065426648400001e+01 1.6971937034400000e+01 1.6925834414499999e+01
747 1 1.1182258441100000e+01 1.9722131257000001e+01 1.9685000198699999e+01
748 2 1.4119089116400000e+01 1.9807875879099999e+01 1.9788673375700000e+01
749 1 1.4024601429200001e+01 1.6920100397799999e+01 1.9733102920699999e+01
750 2 1.1267917382700000e+01 1.6893811820800000e+01 1.9777339269799999e+01
751 1 1.4024337608400000e+01 1.9649977967200002e+01 1.6948694991400000e+01
752 2 1.1220107154400001e+01 1.9711728249000000e+01 1.7004411912399998e+01
753 1 1.1208379581000001e+01 1.6989958062600000e+01 2.2541150713800000e+01
754 2 1.4038348668399999e+01 1.7016976839300000e+01 2.2581532782099998e+01
755 1 1.1224447447099999e+01 1.9792683065500000e+01 2.5354106716800000e+01
756 2 1.4106451669700000e+01 1.9711312966000001e+01 2.5312702583600000e+01
757 1 1.4165589550100000e+01 1.6961330276100000e+01 2.5332119134900001e+01
758 2 1.1285537515600000e+01 1.6822546769700001e+01 2.5448965730699999e+01
759 1 1.4044466580400000e+01 1.9701537617600000e+01 2.2638129148400001e+01
760 2 1.1219308101099999e+01 1.9775278324999999e+01 2.2471040173599999e+01
761 1 1.1294440822000000e+01 1.6974027648400000e+01 2.8213321231199998e+01
762 2 1.4198922558200000e+01 1.6938165844099998e+01 2.8184086565899999e+01
763 1 1.1239201869700000e+01 1.9766702354700001e+01 3.1064049702900000e+01
764 2 1.4081592106800001e+01 1.9830103339499999e+01 3.1057563572700001e+01
765 1 1.4121924719400001e+01 1.6877936401700001e+01 3.1116710271399999e+01
766 2 1.1228505326800001e+01 1.6918715742600000e+01 3.1011920869400001e+01
767 1 1.4094031988199999e+01 1.9712147395799999e+01 2.8242570660599998e+01
768 2 1.1342989907800000e+01 1.9667113869600001e+01 2.8108161067499999e+01
769 1 1.1268908100200001e+01 2.2659911449799999e+01 3.3394205577900002e-02
770 2 1.4121939249700000e+01 2.2549388291700001e+01 5.9444535933100000e-02
771 1 1.1193094441000000e+01 2.5403497119299999e+01 2.8828971289699998e+00
772 2 1.4072631728599999e+01 2.5370089996699999e+01 2.7805391942800002e+00
773 1 1.4091238356700000e+01 2.2591595786999999e+01 2.7200756169800000e+00
774 2 1.1188385381800000e+01 2.2564420685599998e+01 2.7598080413599999e+00
775 1 1.4044595521500000e+01 2.5367650085000001e+01 1.0819148890000000e-02
776 2 1.1328484667200000e+01 2.5320011211800001e+01 7.3528289894899998e-02
777 1 1.1349522163400000e+01 2.2575761644899998e+01 5.5661899383700000e+00
778 2 1.4086692941400001e+01 2.2473108916299999e+01 5.7333524185200000e+00
779 1 1.1210631122900001e+01 2.5455661411500000e+01 8.4650596658600001e+00
780 2 1.4063232798800000e+01 2.5296031645399999e+01 8.4729836719500007e+00
781 1 1.4078673762999999e+01 2.2483704851100001e+01 8.3762203545799991e+00
782 2 1.1273958000600000e+01 2.2487188827200001e+01 8.4134250754900002e+00
783 1 1.4196143115600000e+01 2.5421371531199998e+01 5.6846630853900004e+00
784 2 1.1375289390500001e+01 2.5316930263900002e+01 5.7197847090499998e+00
785 1 1.1196398356400000e+01 2.2595576932600000e+01 1.1235241101800000e+01
786 2 1.4168167624700001e+01 2.2640921757499999e+01 1.1285050186399999e+01
787 1 1.1258185998100000e+01 2.5351379802200000e+01 1.4188114796200001e+01
788 2 1.4171828513900000e+01 2.5454545272200001e+01 1.4135134011900000e+01
789 1 1.4003731245399999e+01 2.2546905879899999e+01 1.4184313336200001e+01
790 2 1.1198188072600001e+01 2.2532588315500000e+01 1.4181542805199999e+01
791 1 1.4056254482900000e+01 2.5435939000299999e+01 1.1238190218500000e+01
792 2 1.1264317309400001e+01 2.5315868779599999e+01 1.1356279075000000e+01
793 1 1.1366716426000000e+01 2.2588352653600001e+01 1.6997654975500001e+01
794 2 1.4073918119300000e+01 2.2659367831200001e+01 1.6987119599800000e+01
795 1 1.1324984158199999e+01 2.5293679029500002e+01 1.9820215819900000e+01
796 2 1.4166725939799999e+01 2.5348652205400001e+01 1.9735908507900000e+01
797 1 1.4015258968200000e+01 2.2519803033599999e+01 1.9719188919800001e+01
798 2 1.1255713639500000e+01 2.2614246963599999e+01 1.9818934161200001e+01
799 1 1.4084138511100001e+01 2.5312656685899999e+01 1.7001184511400002e+01
800 2 1.1208720178300000e+01 2.5401651286400000e+01 1.6923539956300001e+01
801 1 1.1259981482400001e+01 2.2489046328699999e+01 2.2582334913899999e+01
802 2 1.4184933758100000e+01 2.2508307254700000e+01 2.2649434786299999e+01
803 1 1.1284638326700000e+01 2.5422210946700002e+01 2.5383424601100000e+01
804 2 1.4032784908100000e+01 2.5296344286600000e+01 2.5286830366299998e+01
805 1 1.4009229341299999e+01 2.2549675480200001e+01 2.5349629566299999e+01
806 2 1.1323265470799999e+01 2.2540356468300001e+01 2.5377619435800000e+01
807 1 1.4027024398400000e+01 2.5423834506500000e+01 2.2521140558599999e+01
808 2 1.1332720035199999e+01 2.5416779499400000e+01 2.2588631776300002e+01
809 1 1.1182789965300000e+01 2.2623294881900001e+01 2.8223747244900000e+01
810 2 1.4121312699800001e+01 2.2627148460800001e+01 2.8142044471700000e+01
811 1 1.1298710761100001e+01 2.5474784854799999e+01 3.1085957058999998e+01
812 2 1.4183977025300001e+01 2.5384719047899999e+01 3.0935197696199999e+01
813 1 1.4132514143700000e+01 2.2625634046599998e+01 3.0977298221400002e+01
814 2 1.1272092628199999e+01 2.2516691099700001e+01 3.0956008154799999e+01
815 1 1.4170551583400000e+01 2.5415705483800000e+01 2.8207446677899998e+01
816 2 1.1345708581200000e+01 2.5329193490700000e+01 2.8234831864499998e+01
817 1 1.1369943106199999e+01 2.8261546975800002e+01 4.0283634530000001e-02
818 2 1.4171560114400000e+01 2.8167419428199999e+01 3.3811876005300000e+01
819 1 1.1181934153500000e+01 3.1058802687099998e+01 2.8924414943799999e+00
820 2 1.4084030199600001e+01 3.1096833761399999e+01 2.8849623775900000e+00
821 1 1.4153433463700001e+01 2.8172703994900001e+01 2.8775968604400002e+00
822 2 1.1302758790500000e+01 2.8290615564800000e+01 2.7486634043399998e+00
823 1 1.4159139689800000e+01 3.1007793305900002e+01 3.3790709400600001e+01
824 2 1.1186260829100000e+01 3.1105783047700001e+01 3.3748408548100002e+01
825 1 1.1352597072400000e+01 2.8176302233500000e+01 5.7190495369300001e+00
826 2 1.4062737245499999e+01 2.8232937675199999e+01 5.6130020522899997e+00
827 1 1.1247014783899999e+01 3.1049344692100000e+01 8.5151068982300000e+00
828 2 1.4028253368800000e+01 3.0936888056299999e+01 8.4075130290200004e+00
829 1 1.4029248330000000e+01 2.8148600361700002e+01 8.5446778492599993e+00
830 2 1.1361286441300001e+01 2.8223584166999999e+01 8.5412843503300007e+00
831 1 1.4058530853100001e+01 3.0938834842500000e+01 5.6131452941199997e+00
832 2 1.1355920746700001e+01 3.0925643970199999e+01 5.7149952486900002e+00
833 1 1.1271541409899999e+01 2.8248889176300001e+01 1.1285427729400000e+01
834 2 1.4018054230300001e+01 2.8246753815700000e+01 1.1205519043500001e+01
835 1 1.1369005438100000e+01 3.1022335433100000e+01 1.4129065491900000e+01
836 2 1.4002900488600000e+01 3.0947447266400001e+01 1.4163481220400000e+01
837 1 1.4011630515800000e+01 2.8108395673699999e+01 1.4017320676300001e+01
838 2 1.1214866684300000e+01 2.8250121940200000e+01 1.4133029947000001e+01
839 1 1.4158155597900000e+01 3.1072363031199998e+01 1.1192952735000000e+01
840 2 1.1229446632200000e+01 3.1105741350199999e+01 1.1287089400899999e+01
841 1 1.1320797471800001e+01 2.8295406691899998e+01 1.7005380808100000e+01
842 2 1.4185367695400000e+01 2.8182073863599999e+01 1.6927143824900000e+01
843 1 1.1193437190199999e+01 3.0929544775000000e+01 1.9746901212200001e+01
844 2 1.4046007913600000e+01 3.0990469128000001e+01 1.9689879322600000e+01
845 1 1.4093371528800001e+01 2.8285462775399999e+01 1.9686062961299999e+01
846 2 1.1196309723700001e+01 2.8290652283000000e+01 1.9767425054699999e+01
847 1 1.4074060733500000e+01 3.1020581808500001e+01 1.6839378348099999e+01
848 2 1.1242218124000001e+01 3.0927725986199999e+01 1.6850016569600001e+01
849 1 1.1274866706599999e+01 2.8116500553200002e+01 2.2524686388100001e+01
850 2 1.4118435924600000e+01 2.8272434293100002e+01 2.2505706485800001e+01
851 1 1.1252568707900000e+01 3.0975453307399999e+01 2.5337267436200001e+01
852 2 1.4192029699200001e+01 3.1006616925599999e+01 2.5441885059299999e+01
853 1 1.4029952282900000e+01 2.8192278625299998e+01 2.5373515140199999e+01
854 2 1.1304465806800000e+01 2.8234547416400002e+01 2.5358469289100000e+01
855 1 1.4039657278100000e+01 3.1108947871600002e+01 2.2534086037500000e+01
856 2 1.1204989695800000e+01 3.1028342704000000e+01 2.2501379471900002e+01
857 1 1.1340150862900000e+01 2.8238143316999999e+01 2.8219986317000000e+01
858 2 1.4003092450600001e+01 2.8184510567899999e+01 2.8210432490799999e+01
859 1 1.1332765148000000e+01 3.0988182259599999e+01 3.1107125926999998e+01
860 2 1.4089289036000000e+01 3.0937236016899998e+01 3.1007199941800000e+01
861 1 1.4168226063500001e+01 2.8137618908499999e+01 3.0984498060200000e+01
862 2 1.1375507240699999e+01 2.8114686775700001e+01 3.0987777976800000e+01
863 1 1.4087876215400000e+01 3.1016261898100002e+01 2.8209685677000000e+01
864 2 1.1317009115499999e+01 3.0998196025999999e+01 2.8106897125400000e+01
865 1 1.6887742600500001e+01 3.3744250570200002e+01 1.7897559250999999e-04
866 2 1.9813826867200000e+01 3.3756840585299997e+01 3.3821350490299999e+01
867 1 1.7002612870600000e+01 2.8860607402500000e+00 2.8676616790299998e+00
868 2 1.9782125071999999e+01 2.7215433786299998e+00 2.8071513758000002e+00
869 1 1.9817894967099999e+01 4.4442681489799997e-02 2.7903879122199999e+00
870 2 1.6932119234000002e+01 2.3835725390199999e-02 2.8927297041400002e+00
871 1 1.9749729673299999e+01 2.8908718947000001e+00 4.7364776827200000e-02
872 2 1.7019342670899999e+01 2.7882411459499998e+00 3.1373458658200000e-03
873 1 1.6946203415700001e+01 3.3742976098200003e+01 5.6478322701900003e+00
874 2 1.9734012715500000e+01 3.3795742523999998e+01 5.6631232073100000e+00
875 1 1.6964257673399999e+01 2.8540444921899999e+00 8.5412712197800005e+00
876 2 1.9733005805700000e+01 2.8624149653000002e+00 8.3958986033599992e+00
877 1 1.9770576369200000e+01 3.3766400263999998e+01 8.5191958868000004e+00
878 2 1.6982395126800000e+01 3.3767854301100002e+01 8.5449889979500000e+00
879 1 1.9737827436100002e+01 2.9026463945400001e+00 5.7130098797800004e+00
880 2 1.6890680730200000e+01 2.8657968144799999e+00 5.7163053959000001e+00
881 1 1.7019788428500000e+01 3.3790677171299997e+01 1.1337796951500000e+01
882 2 1.9717406105300000e+01 3.3753609442900000e+01 1.1236159131200001e+01
883 1 1.6851843673800001e+01 2.8644320620500001e+00 1.4109060305700000e+01
884 2 1.9670397237000000e+01 2.8409339941099998e+00 1.4032166201400001e+01
885 1 1.9754412667299999e+01 3.3808782117200003e+01 1.4151710205400001e+01
886 2 1.6918715331900000e+01 6.4779672918800005e-02 1.4070368556700000e+01
887 1 1.9720991191100001e+01 2.7746082918499999e+00 1.1318738666700000e+01
888 2 1.7005549105800000e+01 2.7341109849800000e+00 1.1296783306600000e+01
889 1 1.6926798159499999e+01 6.8428881886300003e-02 1.6915360208700001e+01
890 2 1.9766161232000002e+01 3.3799610569400002e+01 1.6943359516099999e+01
891 1 1.6984134179000002e+01 2.7437427630900002e+00 1.9774335436699999e+01
892 2 1.9663456575600001e+01 2.8761588965599998e+00 1.9744364698500000e+01
893 1 1.9761574672999998e+01 3.3819753214000002e+01 1.9736303864900002e+01
894 2 1.6855477698800001e+01 6.3947495502300000e-02 1.9689316697999999e+01
895 1 1.9760480544299998e+01 2.8570520259199998e+00 1.6879157522300002e+01
896 2 1.6844113633500001e+01 2.7517904799999999e+00 1.6848507385600001e+01
897 1 1.6915505489200001e+01 3.3808716532500000e+01 2.2489565032300000e+01
898 2 1.9818591929800000e+01 3.3791371291700003e+01 2.2460065878000002e+01
899 1 1.6883006545699999e+01 2.7715542048300001e+00 2.5359206059600002e+01
900 2 1.9687325562100000e+01 2.7876139318200002e+00 2.5391263186300002e+01
901 1 1.9653476399500001e+01 3.3753653705600001e+01 2.5330973277999998e+01
902 2 1.6908147678799999e+01 5.4044243197200002e-03 2.5340824413200000e+01
903 1 1.9645764719100001e+01 2.8971051938299999e+00 2.2517024093800000e+01
904 2 1.6920127302200001e+01 2.7393227383099998e+00 2.2488564400600001e+01
905 1 1.6954828882899999e+01 3.3787673923600003e+01 2.8222315207800001e+01
906 2 1.9745027488300000e+01 6.3393042255400003e-03 2.8279986298099999e+01
907 1 1.6914589358499999e+01 2.9027548509300001e+00 3.1040267407500000e+01
908 2 1.9788457436300000e+01 2.8141983973700002e+00 3.1046863365699998e+01
909 1 1.9819811034400001e+01 1.7993577763000000e-02 3.1059539269300000e+01
910 2 1.6858791074900001e+01 3.3755719013799997e+01 3.1110575793900001e+01
911 1 1.9676631800999999e+01 2.7826794832099999e+00 2.8181516910399999e+01
912 2 1.6983407124100001e+01 2.7793310762500001e+00 2.8131436351700000e+01
913 1 1.6905493115799999e+01 5.7050348946899998e+00 3.3748807642899997e+01
914 2 1.9746721547800000e+01 5.6808080756999999e+00 3.3833302338400003e+01
915 1 1.6994506793900001e+01 8.4362479930499994e+00 2.8613930045500000e+00
916 2 1.9673753999799999e+01 8.3872644240199996e+00 2.8468050656299999e+00
917 1 1.9726011412799998e+01 5.6479889533999996e+00 2.8433221912800000e+00
918 2 1.6876256501800000e+01 5.6377410916099997e+00 2.8882042582000000e+00
919 1 1.9658105953000000e+01 8.4742452640800003e+00 6.5646029922600005e-02
920 2 1.6824145719899999e+01 8.5030921052499995e+00 3.3780367697800003e+01
921 1 1.6886464804300001e+01 5.5407524056800002e+00 5.6082267377299999e+00
922 2 1.9807047869600002e+01 5.5560367456900002e+00 5.7233705262400001e+00
923 1 1.6906014742800000e+01 8.4588926594499991e+00 8.4170144109699994e+00
924 2 1.9827073631400001e+01 8.3995909599999994e+00 8.5158176228600002e+00
925 1 1.9745270729000001e+01 5.6030472479200002e+00 8.4956708399099998e+00
926 2 1.6978580586400000e+01 5.7157275812900004e+00 8.3724084893599997e+00
927 1 1.9643692658599999e+01 8.4143030556399996e+00 5.6058029210300004e+00
928 2 1.6873640307500001e+01 8.3977729960699996e+00 5.5962149586500001e+00
929 1 1.6966199447400001e+01 5.6118287465199996e+00 1.1297375226700000e+01
930 2 1.9750264130500000e+01 5.7031964781499997e+00 1.1313287303799999e+01
931 1 1.6984356717800001e+01 8.4705600896100002e+00 1.4009919177700001e+01
932 2 1.9712570326000002e+01 8.4151434264000002e+00 1.4041621828600000e+01
933 1 1.9769981455400000e+01 5.7056813061999998e+00 1.4154881630300000e+01
934 2 1.6881236501400000e+01 5.6307882484700000e+00 1.4058899853000000e+01
935 1 1.9713347650700001e+01 8.4498854374899999e+00 1.1377843597800000e+01
936 2 1.6836144919199999e+01 8.4417388417900003e+00 1.1363166780100000e+01
937 1 1.6935679249700001e+01 5.6117665567600001e+00 1.6971395828799999e+01
938 2 1.9836214979600001e+01 5.6900168566899998e+00 1.7002255460299999e+01
939 1 1.6932823266100002e+01 8.4201924358000007e+00 1.9666998193900000e+01
940 2 1.9828524774200002e+01 8.3988675890000000e+00 1.9799091876399999e+01
941 1 1.9758777121500000e+01 5.6213594704899998e+00 1.9701415825400002e+01
942 2 1.6823251941999999e+01 5.7211590206100000e+00 1.9752602951299998e+01
943 1 1.9793681885000002e+01 8.4918760714699992e+00 1.6998410912099999e+01
944 2 1.6840670558199999e+01 8.4984445345200008e+00 1.6960683273499999e+01
945 1 1.6914174062299999e+01 5.5785873576700000e+00 2.2548029699499999e+01
946 2 1.9643840361799999e+01 5.6838131163399996e+00 2.2657472051399999e+01
947 1 1.6989915171900002e+01 8.4590261444500001e+00 2.5422802759000000e+01
948 2 1.9704184633600001e+01 8.4289979541799998e+00 2.5356516230000000e+01
949 1 1.9795806124100000e+01 5.6108109802500001e+00 2.5400466707800000e+01
950 2 1.6978790948600000e+01 5.7260341058100002e+00 2.5419762615300002e+01
951 1 1.9747614845800001e+01 8.5231276794999999e+00 2.2537976052699999e+01
952 2 1.6913340773700000e+01 8.5310144209299992e+00 2.2471589802899999e+01
953 1 1.6987535407199999e+01 5.6962541349400002e+00 2.8294204331400000e+01
954 2 1.9697830288100000e+01 5.6583791935500001e+00 2.8278690903600001e+01
955 1 1.6824617526400001e+01 8.5246429843199998e+00 3.1083138811300000e+01
956 2 1.9770129831900000e+01 8.4756461483599992e+00 3.1111387229799998e+01
957 1 1.9719063183900001e+01 5.6182128002800003e+00 3.0992723501600000e+01
958 2 1.6920746227399999e+01 5.6809518285299996e+00 3.1007872912500002e+01
959 1 1.9726627112300001e+01 8.3976492880699993e+00 2.8209906447100000e+01
960 2 1.6862654086300001e+01 8.4844398822400002e+00 2.8295968621899998e+01
961 1 1.6909094514100001e+01 1.1210449165100000e+01 9.8510107814700001e-02
962 2 1.9718021684899998e+01 1.1279962914800000e+01 7.4705325023300004e-02
963 1 1.6961684518500000e+01 1.4093068081100000e+01 2.8925894590899999e+00
964 2 1.9689684308200000e+01 1.4036338398200000e+01 2.8503846186600001e+00
965 1 1.9716415018599999e+01 1.1286969461700000e+01 2.8702513990799998e+00
966 2 1.6914415749800000e+01 1.1367954742900000e+01 2.7494128047699999e+00
967 1 1.9807801893600001e+01 1.4157791867500000e+01 3.3763607678200003e+01
968 2 1.6930247682000001e+01 1.4156789829499999e+01 3.3822960031699999e+01
969 1 1.6917040825899999e+01 1.1329098662300000e+01 5.7123112487799999e+00
970 2 1.9718720802299998e+01 1.1347423302499999e+01 5.7024667785199998e+00
971 1 1.6843724578800000e+01 1.4133767575500000e+01 8.5247550008000008e+00
972 2 1.9807408824400000e+01 1.4083631045400001e+01 8.4031034185899998e+00
973 1 1.9674158348500001e+01 1.1350516462900000e+01 8.4267045843799995e+00
974 2 1.6981163556599999e+01 1.1301646853499999e+01 8.4034570694999999e+00
975 1 1.9723938864299999e+01 1.4161350239600001e+01 5.7140243206200001e+00
976 2 1.6890553140600002e+01 1.4156094565700000e+01 5.5514503944099998e+00
977 1 1.6925753174899999e+01 1.1207681637300000e+01 1.1372491468100000e+01
978 2 1.9779674071399999e+01 1.1250899161300000e+01 1.1372277576900000e+01
979 1 1.6840038611499999e+01 1.4089834312200001e+01 1.4061713303499999e+01
980 2 1.9838486210100001e+01 1.4017692995299999e+01 1.4105519346399999e+01
981 1 1.9684566927999999e+01 1.1319094207699999e+01 1.4094128619499999e+01
982 2 1.6990587362199999e+01 1.1323223951599999e+01 1.4152256900899999e+01
983 1 1.9702943057399999e+01 1.4031263178000000e+01 1.1257263272499999e+01
984 2 1.6827488586600001e+01 1.4048695786800000e+01 1.1302857748199999e+01
985 1 1.6860363131700002e+01 1.1187732546399999e+01 1.6932674876800000e+01
986 2 1.9796101662300000e+01 1.1217829327100000e+01 1.7004627186499999e+01
987 1 1.6888346027099999e+01 1.4106072566000000e+01 1.9766596511500001e+01
988 2 1.9749682544100001e+01 1.4116512912699999e+01 1.9660691790500000e+01
989 1 1.9740056256999999e+01 1.1329967436800001e+01 1.9668294086000000e+01
990 2 1.7005745413200000e+01 1.1192688944200000e+01 1.9795998394800002e+01
991 1 1.9717391198900000e+01 1.4058728946100000e+01 1.6989907556799999e+01
992 2 1.6984180093100001e+01 1.4121404914499999e+01 1.6896244294199999e+01
993 1 1.6977920850699999e+01 1.1210137173000000e+01 2.2539995188900001e+01
994 2 1.9724254565700001e+01 1.1211803924700000e+01 2.2540648799400000e+01
995 1 1.6893527942799999e+01 1.4028677562800000e+01 2.5309655567800000e+01
996 2 1.9833103668800000e+01 1.4013751367499999e+01 2.5304775884600001e+01
997 1 1.9833356293100000e+01 1.1370065341200000e+01 2.5347081894199999e+01
998 2 1.6840557879599999e+01 1.1301732051900000e+01 2.5367619443500001e+01
999 1 1.9830411406700001e+01 1.4025667074499999e+01 2.2615643361699998e+01
1000 2 1.6824966895900001e+01 1.4041530589800001e+01 2.2520105726099999e+01
1001 1 1.6852885458700001e+01 1.1338994077700001e+01 2.8134717655999999e+01
1002 2 1.9732149265200000e+01 1.1205868420400000e+01 2.8255203105600000e+01
1003 1 1.6954254251500000e+01 1.4009800476200001e+01 3.0955929755500001e+01
1004 2 1.9764947610099998e+01 1.4084501251800001e+01 3.0980422335800000e+01
1005 1 1.9765930983200001e+01 1.1356855730500000e+01 3.1013914542799998e+01
1006 2 1.6864649202999999e+01 1.1286784255300001e+01 3.1039236146600000e+01
1007 1 1.9681915198199999e+01 1.4146429385599999e+01 2.8208465036600000e+01
1008 2 1.6951348447400001e+01 1.4090613749099999e+01 2.8187737449499998e+01
1009 1 1.6862027106799999e+01 1.6998324167200000e+01 3.3779471421499998e+01
1010 2 1.9689874046200000e+01 1.6892709050600001e+01 9.4610589848900001e-02
1011 1 1.6930376398600000e+01 1.9669233295300000e+01 2.8879063998499999e+00
1012 2 1.9698068179400000e+01 1.9644189694900000e+01 2.8664566261300002e+00
1013 1 1.9832333010300001e+01 1.6998963653400001e+01 2.7275414115199998e+00
1014 2 1.6912378270700000e+01 1.6858175537099999e+01 2.7806612244200002e+00
1015 1 1.9677458229599999e+01 1.9796808419900000e+01 3.3796047232399999e+01
1016 2 1.7013172723200000e+01 1.9744984454400001e+01 1.4414169411999999e-02
1017 1 1.6977567904800001e+01 1.6956133168600001e+01 5.7124555409699997e+00
1018 2 1.9665467244399998e+01 1.6919112029299999e+01 5.6494954359199996e+00
1019 1 1.6841828425500001e+01 1.9786524020600002e+01 8.4507984166599996e+00
1020 2 1.9764030619700002e+01 1.9812673910400001e+01 8.5016869452300003e+00
1021 1 1.9794226774199998e+01 1.6878563175400000e+01 8.4494529466100001e+00
1022 2 1.7004640518999999e+01 1.6897804003699999e+01 8.4542380882899995e+00
1023 1 1.9666016133700001e+01 1.9773821836600000e+01 5.5852495623499996e+00
1024 2 1.6852904768300000e+01 1.9813891004399999e+01 5.5753808840200003e+00
1025 1 1.6937848059899999e+01 1.6873234086200000e+01 1.1276781881800000e+01
1026 2 1.9823477484700000e+01 1.6974813921199999e+01 1.1333551459800001e+01
1027 1 1.6838513219399999e+01 1.9661405370099999e+01 1.4154170347000001e+01
1028 2 1.9735711225100001e+01 1.9809331931199999e+01 1.4075099106400000e+01
1029 1 1.9765838810900000e+01 1.6873516247500000e+01 1.4080205981500001e+01
1030 2 1.6919655864100001e+01 1.6854955192199998e+01 1.4077330820300000e+01
1031 1 1.9711164328999999e+01 1.9688139371399998e+01 1.1331842891599999e+01
1032 2 1.6941305184899999e+01 1.9726658109300001e+01 1.1294837706599999e+01
1033 1 1.6909487244899999e+01 1.6886422967800002e+01 1.6864269081500002e+01
1034 2 1.9779883962900001e+01 1.6822665976200000e+01 1.6840310517399999e+01
1035 1 1.6933452580200001e+01 1.9697844136899999e+01 1.9697445946199998e+01
1036 2 1.9793739016400000e+01 1.9838309093900001e+01 1.9746401091599999e+01
1037 1 1.9640516712699998e+01 1.6940280786700001e+01 1.9791172740699999e+01
1038 2 1.6856270358800000e+01 1.6868583743900000e+01 1.9681685113899999e+01
1039 1 1.9796837007400001e+01 1.9826216988199999e+01 1.6980506042199998e+01
1040 2 1.6896769112000001e+01 1.9796220568999999e+01 1.6929161030400000e+01
1041 1 1.6901942397100001e+01 1.6911277802000001e+01 2.2486754232100001e+01
1042 2 1.9834354460200000e+01 1.6984702731700001e+01 2.2501704596200000e+01
1043 1 1.6948982843400000e+01 1.9661044276599998e+01 2.5299033558200001e+01
1044 2 1.9669311800900001e+01 1.9754060154899999e+01 2.5343801223200000e+01
1045 1 1.9807281606600000e+01 1.6941552791700001e+01 2.5451228926700001e+01
1046 2 1.7012641783700001e+01 1.6842624614100000e+01 2.5344950814499999e+01
1047 1 1.9720021928200001e+01 1.9713170429800002e+01 2.2507831784600000e+01
1048 2 1.6961446220100001e+01 1.9675789343999998e+01 2.2600877201199999e+01
1049 1 1.6897762636700001e+01 1.6925971350699999e+01 2.8231287075499999e+01
1050 2 1.9769664927299999e+01 1.6868154074800000e+01 2.8193203656200001e+01
1051 1 1.6887361225500001e+01 1.9835818212100001e+01 3.1045819181700001e+01
1052 2 1.9706239893500001e+01 1.9689956640100000e+01 3.0922631211999999e+01
1053 1 1.9655933469600001e+01 1.6982425426399999e+01 3.0967959904499999e+01
1054 2 1.6948441463199998e+01 1.7010216317499999e+01 3.0944169654100001e+01
1055 1 1.9826838811399998e+01 1.9677918666699998e+01 2.8277049000600002e+01
1056 2 1.6965728390700001e+01 1.9804221224300001e+01 2.8171185627400000e+01
1057 1 1.6877939800699998e+01 2.2578339914299999e+01 2.3638730426299999e-02
1058 2 1.9811964426900001e+01 2.2484358972700001e+01 3.3820981726799999e+01
1059 1 1.6865010493300002e+01 2.5351405242199998e+01 2.7727170506099998e+00
1060 2 1.9663976320600000e+01 2.5341073583000000e+01 2.9189793895000000e+00
1061 1 1.9778439639500000e+01 2.2578025972100001e+01 2.8800317760500000e+00
1062 2 1.6948789316700001e+01 2.2552813905200001e+01 2.8232699686200000e+00
1063 1 1.9649684697900000e+01 2.5428725500799999e+01 3.3811440930700002e+01
1064 2 1.6986635113399998e+01 2.5362542862500000e+01 3.6337756542199999e-02
1065 1 1.6907225893300001e+01 2.2491087549100001e+01 5.6438418838300004e+00
1066 2 1.9832969568500001e+01 2.2509190516000000e+01 5.5782412272700004e+00
1067 1 1.6988632440000000e+01 2.5356044097800002e+01 8.4621555209100006e+00
1068 2 1.9752384938100001e+01 2.5396309714800001e+01 8.5213947060899997e+00
1069 1 1.9721571490799999e+01 2.2561269918000001e+01 8.3765673568600008e+00
1070 2 1.6995315769200001e+01 2.2594605464699999e+01 8.4267452445300002e+00
1071 1 1.9675486673799998e+01 2.5385818823400001e+01 5.5749501534099997e+00
1072 2 1.6893115570700001e+01 2.5389893218499999e+01 5.6379637843100001e+00
1073 1 1.6930927520299999e+01 2.2659694478399999e+01 1.1223073154400000e+01
1074 2 1.9729074187199998e+01 2.2470741365100000e+01 1.1341929273700000e+01
1075 1 1.6937112082300001e+01 2.5465199617400000e+01 1.4131530694200000e+01
1076 2 1.9735220699399999e+01 2.5385967385400001e+01 1.4090274576700001e+01
1077 1 1.9706758684299999e+01 2.2580908496700001e+01 1.4083390531899999e+01
1078 2 1.6984105105400001e+01 2.2633647429400000e+01 1.4067581397800000e+01
1079 1 1.9778340005699999e+01 2.5366155020699999e+01 1.1228681964000000e+01
1080 2 1.7017880708500002e+01 2.5327623133900001e+01 1.1312058998900000e+01
1081 1 1.6972490710300001e+01 2.2598980846100002e+01 1.6837674170700001e+01
1082 2 1.9697212357900000e+01 2.2596673049900001e+01 1.6871037477300000e+01
1083 1 1.7013658906200000e+01 2.5368420234999999e+01 1.9750431746299999e+01
1084 2 1.9740753220999999e+01 2.5366295088899999e+01 1.9733092021800001e+01
1085 1 1.9823438749600001e+01 2.2464683539799999e+01 1.9833955108000001e+01
1086 2 1.6842921523800001e+01 2.2546102603500000e+01 1.9778519042199999e+01
1087 1 1.9800053820300000e+01 2.5411596928400002e+01 1.6918038406699999e+01
1088 2 1.6998069116300002e+01 2.5366946239099999e+01 1.6869482187500001e+01
1089 1 1.6976169263700001e+01 2.2572897088000001e+01 2.2486854462099998e+01
1090 2 1.9705963462800000e+01 2.2477857365999999e+01 2.2568253763900000e+01
1091 1 1.6849987620499999e+01 2.5423177918400000e+01 2.5391101478000000e+01
1092 2 1.9834215628399999e+01 2.5282328242799998e+01 2.5423222279600001e+01
1093 1 1.9680735996500001e+01 2.2466895928700001e+01 2.5405634181300002e+01
1094 2 1.6929143071900000e+01 2.2520473216300001e+01 2.5381466007899999e+01
1095 1 1.9651018174000001e+01 2.5365435811899999e+01 2.2575371586100001e+01
1096 2 1.6994942069899999e+01 2.5449436107400000e+01 2.2619443100300000e+01
1097 1 1.7004398715000001e+01 2.2543616691800000e+01 2.8189809910400001e+01
1098 2 1.9641839251800000e+01 2.2551467467799998e+01 2.8201818943900001e+01
1099 1 1.6931036322200001e+01 2.5470743562300001e+01 3.0936450657700000e+01
1100 2 1.9702119017099999e+01 2.5365194295599998e+01 3.1085408291000000e+01
1101 1 1.9770632634100000e+01 2.2620938780800000e+01 3.0940475238000001e+01
1102 2 1.6886221652200000e+01 2.2463586390300001e+01 3.1104702155799998e+01
1103 1 1.9783816224300001e+01 2.5352037024900000e+01 2.8200973401799999e+01
1104 2 1.6821949364900000e+01 2.5436702105900000e+01 2.8283625360799999e+01
1105 1 1.6871443019400001e+01 2.8240344057200002e+01 2.4854995604500002e-03
1106 2 1.9773354382099999e+01 2.8214500020799999e+01 5.0480611897900001e-03
1107 1 1.6938162449699998e+01 3.0941395397200001e+01 2.7376772206000002e+00
1108 2 1.9702652246200000e+01 3.0937776718199999e+01 2.7956825427799998e+00
1109 1 1.9656315934300000e+01 2.8133227517300000e+01 2.8610971004199999e+00
1110 2 1.6824829931600000e+01 2.8217778651400000e+01 2.7898452092300001e+00
1111 1 1.9790353683100001e+01 3.1080236378799999e+01 3.3763160119699997e+01
1112 2 1.6899947991499999e+01 3.0990895254900000e+01 2.7514821626899999e-02
1113 1 1.6884807289200001e+01 2.8229341835900001e+01 5.7065053622099997e+00
1114 2 1.9707194118800000e+01 2.8217741968999999e+01 5.7033282223999997e+00
1115 1 1.7016669907400001e+01 3.1093677875000001e+01 8.5548946836099997e+00
1116 2 1.9837637507899998e+01 3.0932885272400000e+01 8.4794414706199994e+00
1117 1 1.9642318322100000e+01 2.8118749145199999e+01 8.3898970109800004e+00
1118 2 1.7016427069500001e+01 2.8233483455700000e+01 8.4880185406800006e+00
1119 1 1.9649978667399999e+01 3.1007006146399998e+01 5.6993336086699999e+00
1120 2 1.6910107809900001e+01 3.0926548043800000e+01 5.6129314070999996e+00
1121 1 1.6825962392099999e+01 2.8153281019700000e+01 1.1352541918500000e+01
1122 2 1.9781232134300001e+01 2.8153261607699999e+01 1.1290016796400000e+01
1123 1 1.6900291729500001e+01 3.1060456183100001e+01 1.4088782388600000e+01
1124 2 1.9814548573500002e+01 3.1105449387400000e+01 1.4171318271600001e+01
1125 1 1.9665685008699999e+01 2.8156424189599999e+01 1.4180925084500000e+01
1126 2 1.7007689537800001e+01 2.8290255906999999e+01 1.4002363741000000e+01
1127 1 1.9708879520499998e+01 3.1007685963600000e+01 1.1260288258999999e+01
1128 2 1.6825725375600001e+01 3.0968995161500001e+01 1.1369001594800000e+01
1129 1 1.7001807271099999e+01 2.8126002296799999e+01 1.6829949024899999e+01
1130 2 1.9782336889900002e+01 2.8135239700800000e+01 1.6879537026600001e+01
1131 1 1.7019795134300001e+01 3.1096618142899999e+01 1.9671034622499999e+01
1132 2 1.9714333328599999e+01 3.1001447639500000e+01 1.9651834637499999e+01
1133 1 1.9737851760000002e+01 2.8138271724599999e+01 1.9803417405800001e+01
1134 2 1.6997450783800002e+01 2.8224107858899998e+01 1.9684509319600000e+01
1135 1 1.9744219650400002e+01 3.1004343481500001e+01 1.7004882735799999e+01
1136 2 1.7006718880299999e+01 3.1028189668000000e+01 1.6871996429500001e+01
1137 1 1.6869744598400001e+01 2.8139027444600000e+01 2.2549134845200001e+01
1138 2 1.9784578944500002e+01 2.8106804467900002e+01 2.2602683906199999e+01
1139 1 1.6883258794300001e+01 3.0992280327300001e+01 2.5479913183499999e+01
1140 2 1.9677134619499999e+01 3.1070456925199998e+01 2.5358224545599999e+01
1141 1 1.9813626760999998e+01 2.8260296044000000e+01 2.5319832316100001e+01
1142 2 1.6822037684700000e+01 2.8297712758100001e+01 2.5478175351099999e+01
1143 1 1.9688864493299999e+01 3.0969901396099999e+01 2.2614243807299999e+01
1144 2 1.6980877998400000e+01 3.1007761154299999e+01 2.2606627886399998e+01
1145 1 1.7011011366500000e+01 2.8260888077899999e+01 2.8189518184200001e+01
1146 2 1.9813111408200001e+01 2.8164580765099998e+01 2.8112353971400001e+01
1147 1 1.6821371285200001e+01 3.1079018980200001e+01 3.0970394833000000e+01
1148 2 1.9721232025399999e+01 3.1059468940399999e+01 3.0924578959500000e+01
1149 1 1.9742937065500001e+01 2.8124243828499999e+01 3.0945016625899999e+01
1150 2 1.6934095790600001e+01 2.8246127820100000e+01 3.0992313530200001e+01
1151 1 1.9682866381200000e+01 3.1013673474899999e+01 2.8181937822100000e+01
1152 2 1.6918823908899999e+01 3.1106758554700001e+01 2.8227462382900001e+01
1153 1 2.2479120951900001e+01 3.3764597482299997e+01 3.3746270086000003e+01
1154 2 2.5401121846100001e+01 5.4488683626399997e-02 3.3837966160000001e+01
1155 1 2.2541914060800000e+01 2.8980447381599999e+00 2.7258900817499998e+00
1156 2 2.5473511267799999e+01 2.8483391135799998e+00 2.8851462502100000e+00
1157 1 2.5433911350999999e+01 7.6994919632299999e-02 2.7408222723200000e+00
1158 2 2.2524008534400000e+01 1.9581724934100000e-02 2.7786035574099999e+00
1159 1 2.5398478703900000e+01 2.9002116110500000e+00 3.4639061161199997e-02
1160 2 2.2472334462599999e+01 2.7446232077900001e+00 9.4702465202799999e-02
1161 1 2.2474089581900000e+01 6.8494043217499995e-02 5.7373281064399997e+00
1162 2 2.5312437454800001e+01 4.0812238042899997e-02 5.7016049611400001e+00
1163 1 2.2650287434300001e+01 2.8886190634800002e+00 8.5097519857500004e+00
1164 2 2.5434071901300001e+01 2.8756227268900001e+00 8.3782225449399998e+00
1165 1 2.5347556688099999e+01 7.1032088688799996e-02 8.5075801653699994e+00
1166 2 2.2650319318600001e+01 6.8250219564199993e-02 8.4904074659000006e+00
1167 1 2.5386669761400000e+01 2.7415677530000000e+00 5.6267639663700004e+00
1168 2 2.2652389438200000e+01 2.7292838433500002e+00 5.7328592398299998e+00
1169 1 2.2478756139900000e+01 5.3111295729000002e-02 1.1205947899100000e+01
1170 2 2.5343261173500000e+01 3.3801255637600001e+01 1.1251019655300000e+01
1171 1 2.2631746294399999e+01 2.7561762866500001e+00 1.4174269558200001e+01
1172 2 2.5355004173299999e+01 2.7343079674499999e+00 1.4175629911700000e+01
1173 1 2.5433427324600000e+01 3.3829429358399999e+01 1.4130784886400001e+01
1174 2 2.2595450003800000e+01 3.3819976521800001e+01 1.4109659301300001e+01
1175 1 2.5360755586600000e+01 2.8157979628900001e+00 1.1320666279399999e+01
1176 2 2.2543010484900002e+01 2.8008134635899999e+00 1.1334363326700000e+01
1177 1 2.2518450095900000e+01 3.3809168468899998e+01 1.6905535673399999e+01
1178 2 2.5325569838400000e+01 7.4197725116700003e-02 1.6900036989099998e+01
1179 1 2.2525663739500001e+01 2.7324346129200001e+00 1.9684725855300002e+01
1180 2 2.5400754985199999e+01 2.7296424636899999e+00 1.9834264929500002e+01
1181 1 2.5479143096900000e+01 3.3768241231799998e+01 1.9650063650300002e+01
1182 2 2.2543958627900000e+01 3.3793157400399998e+01 1.9673060713100000e+01
1183 1 2.5300578223700001e+01 2.8175654146500002e+00 1.6995363440399998e+01
1184 2 2.2657194833700000e+01 2.7877612534399998e+00 1.6899355150200002e+01
1185 1 2.2590635836299999e+01 3.3816818985499999e+01 2.2641088672500000e+01
1186 2 2.5438631758800000e+01 1.8173498132700000e-02 2.2591794510900002e+01
1187 1 2.2602560453799999e+01 2.8521707285800000e+00 2.5350189733000001e+01
1188 2 2.5388141352100000e+01 2.7791072517200002e+00 2.5336745252099998e+01
1189 1 2.5414812626600000e+01 3.3825469825699997e+01 2.5448152280599999e+01
1190 2 2.2504012769300001e+01 3.3792167187300002e+01 2.5453006856599998e+01
1191 1 2.5351614472100000e+01 2.9144567564599999e+00 2.2486456029700001e+01
1192 2 2.2631430047599999e+01 2.8304937488399999e+00 2.2567335936300001e+01
1193 1 2.2566684126700000e+01 3.3776485164699999e+01 2.8255109472699999e+01
1194 2 2.5360715453099999e+01 2.5251245427100000e-02 2.8228338445599999e+01
1195 1 2.2633537792399999e+01 2.9053500670800001e+00 3.1027443812300000e+01
1196 2 2.5321213082200000e+01 2.8250743150400002e+00 3.1119820750700001e+01
1197 1 2.5338422791399999e+01 3.3787292547500002e+01 3.1068059884699998e+01
1198 2 2.2638102609400001e+01 3.3779063266599998e+01 3.1062566660000002e+01
1199 1 2.5470702719999998e+01 2.8326992761900001e+00 2.8276963783399999e+01
1200 2 2.2596830595000000e+01 2.8535359267399998e+00 2.8127044351199999e+01
1201 1 2.2505265283200000e+01 5.5879797912300004e+00 3.3814360887399999e+01
1202 2 2.5305549721700000e+01 5.5789628607099999e+00 6.3526898949299998e-02
1203 1 2.2512566524099999e+01 8.3717542003700007e+00 2.7539590945199999e+00
1204 2 2.5329415312399998e+01 8.3908372055200005e+00 2.7862942960499999e+00
1205 1 2.5339241286899998e+01 5.6964882313900000e+00 2.8023576795400000e+00
1206 2 2.2611564583900002e+01 5.6830972783600000e+00 2.7873323691800000e+00
1207 1 2.5329889489300001e+01 8.5530733110000003e+00 3.1661934074000003e-02
1208 2 2.2480681283999999e+01 8.5136074041899992e+00 3.3745961439100000e+01
1209 1 2.2583503994699999e+01 5.7141510745900002e+00 5.5503469640500001e+00
1210 2 2.5391787044800001e+01 5.5523915434699997e+00 5.7047447009000001e+00
1211 1 2.2614788465699998e+01 8.3898497215999992e+00 8.4256114995499996e+00
1212 2 2.5334534515600001e+01 8.4584328101599997e+00 8.4662991887200008e+00
1213 1 2.5335346755000000e+01 5.6820590985099999e+00 8.3988001006699999e+00
1214 2 2.2470069712299999e+01 5.7015423165200003e+00 8.3921036756599996e+00
1215 1 2.5470756528999999e+01 8.4959840453499993e+00 5.6104282864700004e+00
1216 2 2.2510052686700000e+01 8.4462542592900007e+00 5.5781585251900001e+00
1217 1 2.2523194776000000e+01 5.5783044611700001e+00 1.1183940111200000e+01
1218 2 2.5375441465900000e+01 5.6888239922099997e+00 1.1342607850900000e+01
1219 1 2.2517165060100002e+01 8.5261171023800006e+00 1.4145184105500000e+01
1220 2 2.5421282441799999e+01 8.4532736092899992e+00 1.4105959457200001e+01
1221 1 2.5305584243999999e+01 5.7114056752500000e+00 1.4131143098000001e+01
1222 2 2.2533912496199999e+01 5.6194926507099998e+00 1.4084976931400000e+01
1223 1 2.5363621519599999e+01 8.3943186114700001e+00 1.1225869997600000e+01
1224 2 2.2492857326999999e+01 8.5046362019899995e+00 1.1189038984300000e+01
1225 1 2.2546397357499998e+01 5.5486382957100000e+00 1.6848953844299999e+01
1226 2 2.5360724982699999e+01 5.5878885113600001e+00 1.6857470781200000e+01
1227 1 2.2550861515299999e+01 8.4316643515699994e+00 1.9678925328500000e+01
1228 2 2.5335889317199999e+01 8.3884099875300002e+00 1.9759321567899999e+01
1229 1 2.5367660013100000e+01 5.6474133538800002e+00 1.9754646460499998e+01
1230 2 2.2633428573600000e+01 5.6095465632300003e+00 1.9751879310700001e+01
1231 1 2.5339712139800000e+01 8.4186291627299994e+00 1.6900157145900000e+01
1232 2 2.2530528380700002e+01 8.4975464639700000e+00 1.6904627581700002e+01
1233 1 2.2470007193200001e+01 5.5400496937400003e+00 2.2544720379400001e+01
1234 2 2.5361972256400001e+01 5.6592097855999999e+00 2.2528153963299999e+01
1235 1 2.2634148219600000e+01 8.4823433141999995e+00 2.5425856806599999e+01
1236 2 2.5310079430100000e+01 8.4077290133799991e+00 2.5361030647700002e+01
1237 1 2.5402250137700001e+01 5.5755097716300002e+00 2.5436295234900001e+01
1238 2 2.2525262664400000e+01 5.6901251499800001e+00 2.5412768401899999e+01
1239 1 2.5297934956500001e+01 8.4947027578899998e+00 2.2619708634399998e+01
1240 2 2.2659391459799998e+01 8.4278008083400007e+00 2.2467174195300000e+01
1241 1 2.2531698001999999e+01 5.6570280081100002e+00 2.8208174663499999e+01
1242 2 2.5286255248500002e+01 5.5462343600199997e+00 2.8187864772000001e+01
1243 1 2.2635550561799999e+01 8.3742785468199994e+00 3.1085917845000001e+01
1244 2 2.5387226586299999e+01 8.5365478846799991e+00 3.0991277447200002e+01
1245 1 2.5443200872100000e+01 5.6513788626399997e+00 3.0951302496400000e+01
1246 2 2.2500216316900001e+01 5.7340734754199998e+00 3.0980864580999999e+01
1247 1 2.5288681908899999e+01 8.4482128424000003e+00 2.8216561629899999e+01
1248 2 2.2598233729699999e+01 8.3601173670800009e+00 2.8137869707400000e+01
1249 1 2.2461192963399998e+01 1.1221791120400001e+01 2.7606077337600000e-02
1250 2 2.5341089828900000e+01 1.1218886374800000e+01 5.2508904525600003e-02
1251 1 2.2566675332999999e+01 1.4127553256300001e+01 2.8806948407399999e+00
1252 2 2.5327528166200000e+01 1.4011801828499999e+01 2.8527042700399998e+00
1253 1 2.5439179797800001e+01 1.1283539782300000e+01 2.8817553524099999e+00
1254 2 2.2532262044900001e+01 1.1323031538900000e+01 2.8253866414900002e+00
1255 1 2.5345489185900000e+01 1.4134096018799999e+01 3.3764531181499997e+01
1256 2 2.2559377650700000e+01 1.4138674645000000e+01 4.3284166383100002e-02
1257 1 2.2484068250699998e+01 1.1328678969100000e+01 5.5617314663900004e+00
1258 2 2.5439481438600001e+01 1.1312147252400001e+01 5.5877532916900003e+00
1259 1 2.2573909294600000e+01 1.4183940618099999e+01 8.3699972582100006e+00
1260 2 2.5422427168700001e+01 1.4135486964500000e+01 8.4848685621200008e+00
1261 1 2.5405847696100000e+01 1.1243299913200000e+01 8.3644712112199997e+00
1262 2 2.2537045262900001e+01 1.1352065612100001e+01 8.4643442960000002e+00
1263 1 2.5334619830299999e+01 1.4046191450600000e+01 5.6445806976500004e+00
1264 2 2.2622779949900000e+01 1.4008515999900000e+01 5.5570332815399999e+00
1265 1 2.2556207187799998e+01 1.1334735962100000e+01 1.1314022290200000e+01
1266 2 2.5408573893300002e+01 1.1339730887500000e+01 1.1222341140799999e+01
1267 1 2.2570321361300000e+01 1.4083800545900001e+01 1.4162664111900000e+01
1268 2 2.5473384436700002e+01 1.4165244749299999e+01 1.4112894314700000e+01
1269 1 2.5463776635599999e+01 1.1202038619200000e+01 1.4115878072299999e+01
1270 2 2.2638666474899999e+01 1.1309906341500000e+01 1.4119349805400001e+01
1271 1 2.5381521645100001e+01 1.4017382877199999e+01 1.1205402338800001e+01
1272 2 2.2610594471799999e+01 1.4048154565300001e+01 1.1339997672200001e+01
1273 1 2.2478867108599999e+01 1.1334294224300001e+01 1.6908687994200001e+01
1274 2 2.5440770008499999e+01 1.1182923640900000e+01 1.6970117755600000e+01
1275 1 2.2542254715199999e+01 1.4193891654400000e+01 1.9690303986800000e+01
1276 2 2.5361235413399999e+01 1.4133063758600001e+01 1.9781161589200000e+01
1277 1 2.5417573019500001e+01 1.1346267214799999e+01 1.9827376531100001e+01
1278 2 2.2604518276600000e+01 1.1282686626800000e+01 1.9789328309199998e+01
1279 1 2.5476284393099998e+01 1.4000791449499999e+01 1.6972835107600002e+01
1280 2 2.2546519461500001e+01 1.4136764642299999e+01 1.6863214863400000e+01
1281 1 2.2505757271099998e+01 1.1334558798500000e+01 2.2612112646400000e+01
1282 2 2.5412790968700001e+01 1.1188797169800001e+01 2.2547653647800001e+01
1283 1 2.2512472236299999e+01 1.4012355742500000e+01 2.5320366854600000e+01
1284 2 2.5406990350099999e+01 1.4063140875100000e+01 2.5451031212099998e+01
1285 1 2.5422709062399999e+01 1.1226361096100000e+01 2.5454513216399999e+01
1286 2 2.2471713045600001e+01 1.1252924951200001e+01 2.5392828573599999e+01
1287 1 2.5394964008199999e+01 1.4018026117200000e+01 2.2604092387100000e+01
1288 2 2.2649631060000001e+01 1.4144325341800000e+01 2.2579520382999998e+01
1289 1 2.2515676753899999e+01 1.1250693242200001e+01 2.8105899479100000e+01
1290 2 2.5334353533100000e+01 1.1297760584500001e+01 2.8203862887700001e+01
1291 1 2.2484624422300001e+01 1.4069053450700000e+01 3.1030267327899999e+01
1292 2 2.5385064806500001e+01 1.4027457085300000e+01 3.1086181425900001e+01
1293 1 2.5451403696300002e+01 1.1351666218500000e+01 3.1047745355299998e+01
1294 2 2.2612570994500000e+01 1.1338030000700000e+01 3.1019525293600001e+01
1295 1 2.5313011047300002e+01 1.4078308941200000e+01 2.8236422265800002e+01
1296 2 2.2608067957999999e+01 1.4022290549199999e+01 2.8123270269100001e+01
1297 1 2.2527089514800000e+01 1.7016581037000002e+01 3.3768033998500002e+01
1298 2 2.5288746140699999e+01 1.6860464064700000e+01 4.9095647429699997e-02
1299 1 2.2648448193000000e+01 1.9646925523800000e+01 2.7352392638800000e+00
1300 2 2.5431099980999999e+01 1.9726960753000000e+01 2.7496276496999998e+00
1301 1 2.5443499432999999e+01 1.6843518652299998e+01 2.8116178864700001e+00
1302 2 2.2505842725299999e+01 1.6990690000299999e+01 2.8087481709000000e+00
1303 1 2.5468590409000001e+01 1.9774762801600001e+01 3.3767161481599999e+01
1304 2 2.2556264649399999e+01 1.9806895309200002e+01 3.3767984009000003e+01
1305 1 2.2616563991700001e+01 1.7019772984900001e+01 5.5934837492499998e+00
1306 2 2.5316578572600001e+01 1.6949586516099998e+01 5.5612605847900003e+00
1307 1 2.2618330510500002e+01 1.9675973826700002e+01 8.4743249984499993e+00
1308 2 2.5285542000300001e+01 1.9678622533700000e+01 8.4991657547900008e+00
1309 1 2.5401814033000001e+01 1.6848259820700001e+01 8.3980265086799992e+00
1310 2 2.2606874870700000e+01 1.7019768097600000e+01 8.4127103266900001e+00
1311 1 2.5438610741600002e+01 1.9651285427700000e+01 5.6342881359300003e+00
1312 2 2.2644861900599999e+01 1.9759510467799998e+01 5.6098865538400000e+00
1313 1 2.2603880227600001e+01 1.6933926822499998e+01 1.1280986296600000e+01
1314 2 2.5442512485900000e+01 1.6975954148900001e+01 1.1268324131800000e+01
1315 1 2.2593794968600001e+01 1.9757715260299999e+01 1.4067562111100001e+01
1316 2 2.5316009463099999e+01 1.9750670890399999e+01 1.4064734905400000e+01
1317 1 2.5432737561500002e+01 1.6988915980300000e+01 1.4131962099900001e+01
1318 2 2.2512335067700000e+01 1.6917474630200001e+01 1.4187155733399999e+01
1319 1 2.5366142934700001e+01 1.9697899552100001e+01 1.1338530047400001e+01
1320 2 2.2651865438700000e+01 1.9755438025200000e+01 1.1302356936100001e+01
1321 1 2.2576180546100002e+01 1.6941613602499999e+01 1.6974950022700000e+01
1322 2 2.5365127388299999e+01 1.6922331582399998e+01 1.6844087082200002e+01
1323 1 2.2562541699299999e+01 1.9810995638100000e+01 1.9656973336899998e+01
1324 2 2.5461504029299999e+01 1.9667685922200000e+01 1.9730814343300001e+01
1325 1 2.5395479121699999e+01 1.7015893188400000e+01 1.9776000390699998e+01
1326 2 2.2578966272900001e+01 1.6947956995700000e+01 1.9712597316299998e+01
1327 1 2.5473817297200000e+01 1.9829120947600000e+01 1.6875938333299999e+01
1328 2 2.2471285125100000e+01 1.9683488617399998e+01 1.6830251790799998e+01
1329 1 2.2632126961899999e+01 1.6891306888999999e+01 2.2639322096200001e+01
1330 2 2.5380328959000000e+01 1.6832078234699999e+01 2.2635038480999999e+01
1331 1 2.2504391802800001e+01 1.9784399605099999e+01 2.5286836633800000e+01
1332 2 2.5284515210900000e+01 1.9708373843099999e+01 2.5389209122099999e+01
1333 1 2.5444062823100001e+01 1.7011161281000000e+01 2.5290082779500000e+01
1334 2 2.2498313760399999e+01 1.6940694911600001e+01 2.5382465996499999e+01
1335 1 2.5371812379000001e+01 1.9813822109699998e+01 2.2620496582600001e+01
1336 2 2.2550532634900001e+01 1.9683818749299999e+01 2.2465988347800000e+01
1337 1 2.2529755370499998e+01 1.6975589943700001e+01 2.8116182895900000e+01
1338 2 2.5437281548200001e+01 1.6857767695000000e+01 2.8280843730800001e+01
1339 1 2.2484643486000000e+01 1.9704331696499999e+01 3.0983749129400000e+01
1340 2 2.5479529752300000e+01 1.9711842180200001e+01 3.1068788481900000e+01
1341 1 2.5348855962799998e+01 1.6911809921000000e+01 3.1048293644800001e+01
1342 2 2.2562181358200000e+01 1.6865100912100001e+01 3.0953384731000000e+01
1343 1 2.5468739060200001e+01 1.9760371954800000e+01 2.8190551882800001e+01
1344 2 2.2545528657300000e+01 1.9822052167700001e+01 2.8147084543500000e+01
1345 1 2.2504266001800001e+01 2.2602125342899999e+01 3.3811147122900003e+01
1346 2 2.5394897426400000e+01 2.2505354834700000e+01 8.5575499653199993e-02
1347 1 2.2625017101299999e+01 2.5444005553699999e+01 2.7284364055800001e+00
1348 2 2.5284176350199999e+01 2.5294221491399998e+01 2.7888422662600001e+00
1349 1 2.5345002284900001e+01 2.2630206820400002e+01 2.8884482889899998e+00
1350 2 2.2626957940299999e+01 2.2556605237199999e+01 2.8317857453499999e+00
1351 1 2.5367281320800000e+01 2.5353877468299999e+01 3.3756982790499997e+01
1352 2 2.2620302099200000e+01 2.5396022761600001e+01 9.0850046826800000e-03
1353 1 2.2565774479600002e+01 2.2492253334099999e+01 5.7057557820999998e+00
1354 2 2.5415202401399998e+01 2.2549281137800001e+01 5.6109285887100002e+00
1355 1 2.2474364222900000e+01 2.5452562770299998e+01 8.4847147966800005e+00
1356 2 2.5433006407200001e+01 2.5452509964800001e+01 8.4302821498800000e+00
1357 1 2.5361222852499999e+01 2.2643069336899998e+01 8.3815986985399995e+00
1358 2 2.2549521678300000e+01 2.2588767354500000e+01 8.3879425293800001e+00
1359 1 2.5347165801799999e+01 2.5332806732400002e+01 5.7293757645500003e+00
1360 2 2.2460230092700002e+01 2.5320207272000001e+01 5.7367655338099999e+00
1361 1 2.2518552871899999e+01 2.2500835273300002e+01 1.1343691747299999e+01
1362 2 2.5435239063800001e+01 2.2538275810999998e+01 1.1267350399900000e+01
1363 1 2.2525129093800000e+01 2.5446482587900000e+01 1.4032077797700000e+01
1364 2 2.5383207800600001e+01 2.5347559828400001e+01 1.4008545431100000e+01
1365 1 2.5458510268500000e+01 2.2532175677500000e+01 1.4105277879200001e+01
1366 2 2.2526364721800000e+01 2.2495680576800002e+01 1.4102809474700001e+01
1367 1 2.5373161961899999e+01 2.5428210178000000e+01 1.1339106565100000e+01
1368 2 2.2588687003600000e+01 2.5295940104400000e+01 1.1229868215200000e+01
1369 1 2.2495648699899998e+01 2.2470344528999998e+01 1.6964210570700001e+01
1370 2 2.5346116886299999e+01 2.2563369362100001e+01 1.6918249644199999e+01
1371 1 2.2546805434900001e+01 2.5465684651800000e+01 1.9747399058300001e+01
1372 2 2.5307632407800000e+01 2.5298145248600001e+01 1.9736202458000001e+01
1373 1 2.5302458878900001e+01 2.2580545208800000e+01 1.9740828720500001e+01
1374 2 2.2629158663700000e+01 2.2589875386500001e+01 1.9821674071200000e+01
1375 1 2.5411976908700002e+01 2.5443992895499999e+01 1.6932241874599999e+01
1376 2 2.2555368664000000e+01 2.5440769111800002e+01 1.6992505449799999e+01
1377 1 2.2568831931799998e+01 2.2639036656100000e+01 2.2565471902199999e+01
1378 2 2.5422252296300002e+01 2.2519534068900001e+01 2.2623700863000000e+01
1379 1 2.2472594442399998e+01 2.5410144356000000e+01 2.5449435894400001e+01
1380 2 2.5313962832200001e+01 2.5311968631799999e+01 2.5280067627000001e+01
1381 1 2.5357150877799999e+01 2.2526352174399999e+01 2.5460348872899999e+01
1382 2 2.2641149983399998e+01 2.2592496711100001e+01 2.5405879748400000e+01
1383 1 2.5455901485900000e+01 2.5411821237500000e+01 2.2489086431600001e+01
1384 2 2.2498293847199999e+01 2.5344712866199998e+01 2.2626587757500001e+01
1385 1 2.2637706827399999e+01 2.2607970343400002e+01 2.8256435560500002e+01
1386 2 2.5298898176100000e+01 2.2581969860499999e+01 2.8218058228400000e+01
1387 1 2.2517501591900000e+01 2.5478419999700002e+01 3.0923001166900001e+01
1388 2 2.5346348114100000e+01 2.5435522953500001e+01 3.0984581041399998e+01
1389 1 2.5295581258599999e+01 2.2590310314900002e+01 3.1003878331700001e+01
1390 2 2.2515097536199999e+01 2.2484125079700000e+01 3.1109213456700001e+01
1391 1 2.5418909774100001e+01 2.5466765882299999e+01 2.8287079880000000e+01
1392 2 2.2512246173600001e+01 2.5295996229200000e+01 2.8281981396399999e+01
1393 1 2.2586411900100000e+01 2.8157833642800000e+01 3.3814359431299998e+01
1394 2 2.5377790337800000e+01 2.8222420153100000e+01 3.3754289956199997e+01
1395 1 2.2506681580399999e+01 3.0946339673899999e+01 2.8955084123899999e+00
1396 2 2.5373167364200000e+01 3.1070289585000001e+01 2.8621859199299999e+00
1397 1 2.5318293814400000e+01 2.8216174043199999e+01 2.7468062672800002e+00
1398 2 2.2510554525200000e+01 2.8246107208000002e+01 2.7818554210199999e+00
1399 1 2.5424846474300001e+01 3.0966493992699998e+01 6.8149226384899994e-02
1400 2 2.2596394807799999e+01 3.1073801448299999e+01 7.4099863171200001e-02
1401 1 2.2571049143900002e+01 2.8151554600000001e+01 5.6331052881200003e+00
1402 2 2.5284922710299998e+01 2.8189083196700000e+01 5.6202422348800001e+00
1403 1 2.2469614926399998e+01 3.0939300859500001e+01 8.4883788422100004e+00
1404 2 2.5290976120000000e+01 3.0998130446000001e+01 8.4221275407400000e+00
1405 1 2.5281953337699999e+01 2.8114877915099999e+01 8.5254070611100001e+00
1406 2 2.2607486112800000e+01 2.8153450690500001e+01 8.5032023895699993e+00
1407 1 2.5307934383599999e+01 3.1065847203600001e+01 5.5644707820499999e+00
1408 2 2.2578554185800002e+01 3.1119540096900000e+01 5.7280591347899996e+00
1409 1 2.2476191545399999e+01 2.8218808050800000e+01 1.1275219432800000e+01
1410 2 2.5290286965300002e+01 2.8240879077900001e+01 1.1281142831100000e+01
1411 1 2.2585268432800000e+01 3.0947176861799999e+01 1.4038617807800000e+01
1412 2 2.5422646379300001e+01 3.1105291767400001e+01 1.4071197059499999e+01
1413 1 2.5476791286600001e+01 2.8143811263100002e+01 1.4037605691100000e+01
1414 2 2.2605683572400000e+01 2.8151478315100000e+01 1.4190861035399999e+01
1415 1 2.5289434154100000e+01 3.1033605662700001e+01 1.1340482417800001e+01
1416 2 2.2608227928200002e+01 3.1111946246100000e+01 1.1225761448800000e+01
1417 1 2.2583228570100001e+01 2.8126035914100001e+01 1.6849103931500000e+01
1418 2 2.5428018993799999e+01 2.8239085578000001e+01 1.6975003627400000e+01
1419 1 2.2634606166099999e+01 3.0957360273100001e+01 1.9783031082899999e+01
1420 2 2.5442280846300001e+01 3.0968605390200000e+01 1.9737859379500001e+01
1421 1 2.5343968836199998e+01 2.8119659449200000e+01 1.9812059237800000e+01
1422 2 2.2610438558999999e+01 2.8102161309600000e+01 1.9720118055800000e+01
1423 1 2.5443583078700001e+01 3.1111715620799998e+01 1.6869030143400000e+01
1424 2 2.2650391267000000e+01 3.1013507445900000e+01 1.6829906148399999e+01
1425 1 2.2462938066500001e+01 2.8119207332700000e+01 2.2570266599800000e+01
1426 2 2.5478670258000001e+01 2.8266132921699999e+01 2.2653222487400001e+01
1427 1 2.2646076322399999e+01 3.1099123806700000e+01 2.5442661893200000e+01
1428 2 2.5402929065199999e+01 3.1058618565500002e+01 2.5469190395199998e+01
1429 1 2.5409439219199999e+01 2.8117203409799998e+01 2.5386392636800000e+01
1430 2 2.2618197387900000e+01 2.8122624009500001e+01 2.5295594768899999e+01
1431 1 2.5449812884300002e+01 3.0937861658199999e+01 2.2490763807499999e+01
1432 2 2.2563351144199999e+01 3.1033084044799999e+01 2.2617183294200000e+01
1433 1 2.2604960267599999e+01 2.8114894311499999e+01 2.8212238353899998e+01
1434 2 2.5417535843800000e+01 2.8297851293699999e+01 2.8259557865800002e+01
1435 1 2.2639950506000002e+01 3.0985618416099999e+01 3.1024372129300001e+01
1436 2 2.5290922807899999e+01 3.1080033517200000e+01 3.1038627405400000e+01
1437 1 2.5419552914000000e+01 2.8299515427900001e+01 3.1083369052500000e+01
1438 2 2.2505046817299998e+01 2.8117631573899999e+01 3.0987859296200000e+01
1439 1 2.5415318292399999e+01 3.0927864232099999e+01 2.8260148701399999e+01
1440 2 2.2579790708200001e+01 3.1086090223199999e+01 2.8168302265600001e+01
1441 1 2.8164765709099999e+01 3.3763594063799999e+01 3.3771406789399997e+01
1442 2 3.0978223063600002e+01 3.3805394094699999e+01 3.3822832747500001e+01
1443 1 2.8192532703299999e+01 2.9085956393900001e+00 2.9032321903299998e+00
1444 2 3.0938450798900000e+01 2.7545460990300001e+00 2.8299605336300000e+00
1445 1 3.0975951132399999e+01 3.3807014020200000e+01 2.9195207900100000e+00
1446 2 2.8291761532500001e+01 3.3757332745699998e+01 2.8523786230599999e+00
1447 1 3.1110786240600000e+01 2.7592506275500002e+00 1.5601849464900000e-02
1448 2 2.8190402986999999e+01 2.7542095931100001e+00 5.4042502182500000e-02
1449 1 2.8272324553499999e+01 7.2720734677099996e-02 5.6403775569799999e+00
1450 2 3.0976999910300002e+01 3.3815997129800003e+01 5.6260039232299999e+00
1451 1 2.8211925274999999e+01 2.8556216458699999e+00 8.4605621200600005e+00
1452 2 3.1090185592699999e+01 2.8363030631499999e+00 8.5438243170899995e+00
1453 1 3.1093105353100000e+01 3.3785612392200001e+01 8.4077840185799992e+00
1454 2 2.8215335838600001e+01 4.6807385865800001e-02 8.4147540341100004e+00
1455 1 3.1104782538900000e+01 2.8007835108000001e+00 5.6128956559700001e+00
1456 2 2.8263179380899999e+01 2.7448782507799998e+00 5.7392224416099999e+00
1457 1 2.8287780332400001e+01 7.6479685965100005e-02 1.1278106788800001e+01
1458 2 3.1096885467100002e+01 3.3829486888200002e+01 1.1208587865100000e+01
1459 1 2.8272929342800001e+01 2.8363177861200000e+00 1.4039152668400000e+01
1460 2 3.0970734273400002e+01 2.8388702228999998e+00 1.4059163502100001e+01
1461 1 3.0955579657900000e+01 3.3800165470200000e+01 1.4017841183000000e+01
1462 2 2.8233459888300001e+01 4.3163786140000000e-02 1.4050997336700000e+01
1463 1 3.1082269324900000e+01 2.9026151923399999e+00 1.1362154395599999e+01
1464 2 2.8232896699099999e+01 2.8091726407900000e+00 1.1191307041200000e+01
1465 1 2.8295823430799999e+01 6.0892993633399999e-02 1.6869790623000000e+01
1466 2 3.1079996247000000e+01 3.3751539764100002e+01 1.7017168287600001e+01
1467 1 2.8124596597800000e+01 2.7406477617800000e+00 1.9807370127300000e+01
1468 2 3.0933848404399999e+01 2.7841226842400002e+00 1.9684105093300001e+01
1469 1 3.0968855177599998e+01 3.3814165771500001e+01 1.9759760722900001e+01
1470 2 2.8205040452300000e+01 9.6678156440099999e-02 1.9819552522500000e+01
1471 1 3.1000583550700000e+01 2.8472572599500001e+00 1.6972356907500000e+01
1472 2 2.8121415235699999e+01 2.8439965790800001e+00 1.6965486883699999e+01
1473 1 2.8238321578699999e+01 3.3746276592100003e+01 2.2649122014000000e+01
1474 2 3.0920192310099999e+01 3.3759137179299998e+01 2.2503686565399999e+01
1475 1 2.8231029365000001e+01 2.8203885009200000e+00 2.5283799907300001e+01
1476 2 3.0981868141600000e+01 2.7596973984800002e+00 2.5417810992700002e+01
1477 1 3.1093421519300001e+01 6.8655382893099998e-02 2.5309013110900000e+01
1478 2 2.8167326116500000e+01 3.3765915629500000e+01 2.5451262260600000e+01
1479 1 3.1097579055299999e+01 2.8730402896100000e+00 2.2596478694900000e+01
1480 2 2.8205352929600000e+01 2.9017071618400001e+00 2.2478147599900002e+01
1481 1 2.8268507065700000e+01 3.3823154545800001e+01 2.8227340785100001e+01
1482 2 3.1056316936500000e+01 3.3824135484000003e+01 2.8129770431200001e+01
1483 1 2.8237166201200001e+01 2.8213157367899999e+00 3.1010146878099999e+01
1484 2 3.1092817264400001e+01 2.8999006233700002e+00 3.0962874600300001e+01
1485 1 3.1013563429900000e+01 3.3775544355599997e+01 3.1035515834800002e+01
1486 2 2.8192555718500000e+01 3.9889726320199999e-02 3.1102208217200001e+01
1487 1 3.1010347726900001e+01 2.9122167160300001e+00 2.8149163396100001e+01
1488 2 2.8270094202500001e+01 2.8431719166399998e+00 2.8170708537399999e+01
1489 1 2.8119056513600000e+01 5.6496040849100000e+00 7.6900502861500006e-02
1490 2 3.1023263246500001e+01 5.5839005859600004e+00 3.3821523185200000e+01
1491 1 2.8296925622500002e+01 8.4995447917900009e+00 2.8989637415499998e+00
1492 2 3.0920751147099999e+01 8.3682380440500008e+00 2.8344457789200002e+00
1493 1 3.0980524027000001e+01 5.7031075656099999e+00 2.8516750511900000e+00
1494 2 2.8182445797000000e+01 5.6595996540700000e+00 2.8816335485600000e+00
1495 1 3.1031470595999998e+01 8.3723001191200002e+00 3.3812982481500001e+01
1496 2 2.8186659166700000e+01 8.4202827816900001e+00 1.2477277650000000e-02
1497 1 2.8240941334999999e+01 5.6679084702899996e+00 5.6064241120000000e+00
1498 2 3.1081417112499999e+01 5.6546893909699998e+00 5.6382922654699996e+00
1499 1 2.8137310110700000e+01 8.5501711131399993e+00 8.3881470810799996e+00
1500 2 3.0985208429400000e+01 8.4891366109399993e+00 8.5060866463499991e+00
1501 1 3.0944987309799998e+01 5.7239358373500000e+00 8.5537049481000000e+00
1502 2 2.8270097986000000e+01 5.6670402742699997e+00 8.4689074153000004e+00
1503 1 3.1111362546799999e+01 8.4997827814299995e+00 5.7175012209500000e+00
1504 2 2.8240075018300001e+01 8.3630148228000003e+00 5.5876920594500001e+00
1505 1 2.8225474119299999e+01 5.7077765115899997e+00 1.1324205660600001e+01
1506 2 3.1035624422900000e+01 5.5631571510200004e+00 1.1291778498499999e+01
1507 1 2.8168836485900002e+01 8.4705501643200005e+00 1.4106005157200000e+01
1508 2 3.1077174170599999e+01 8.5320542649199993e+00 1.4000280663100000e+01
1509 1 3.1012619082000001e+01 5.6768532113000001e+00 1.4070960809600001e+01
1510 2 2.8258170727700001e+01 5.5414323550000004e+00 1.4032972300500001e+01
1511 1 3.1028731890700001e+01 8.3722245995800009e+00 1.1314000117999999e+01
1512 2 2.8284481551300001e+01 8.5268581907699996e+00 1.1320014150600000e+01
1513 1 2.8282733425800000e+01 5.6845532889700001e+00 1.6959594446099999e+01
1514 2 3.0920691865500000e+01 5.5780545730800002e+00 1.6954958523100000e+01
1515 1 2.8257352632400000e+01 8.5534020568399995e+00 1.9795997971700000e+01
1516 2 3.0973516043299998e+01 8.4312783941799996e+00 1.9799518747699999e+01
1517 1 3.1026691719300000e+01 5.5880091564800001e+00 1.9706399368800000e+01
1518 2 2.8168914630000000e+01 5.6343716321999997e+00 1.9837110110600001e+01
1519 1 3.0994271803299998e+01 8.4139670128200006e+00 1.6898378389000001e+01
1520 2 2.8262114512099998e+01 8.3754500710900004e+00 1.6970628448399999e+01
1521 1 2.8279204581100000e+01 5.6054423625899998e+00 2.2650054385200001e+01
1522 2 3.1099158219500001e+01 5.7348123359200001e+00 2.2652252650200001e+01
1523 1 2.8163378089599998e+01 8.5476477297399995e+00 2.5322293852600001e+01
1524 2 3.1044530853900000e+01 8.4796752563400002e+00 2.5335844610399999e+01
1525 1 3.1085388325800000e+01 5.5548636857600000e+00 2.5464160860600000e+01
1526 2 2.8119508982599999e+01 5.7258711159800004e+00 2.5294298379800001e+01
1527 1 3.1066582381800000e+01 8.3895783132900004e+00 2.2484765584700000e+01
1528 2 2.8169618009800001e+01 8.3825004338899998e+00 2.2466343312799999e+01
1529 1 2.8120601324399999e+01 5.5567426070700003e+00 2.8285955124099999e+01
1530 2 3.1109069847000001e+01 5.5861948447499996e+00 2.8230687243399998e+01
1531 1 2.8115275871300000e+01 8.4506357044700007e+00 3.1042289204300001e+01
1532 2 3.1079977741800001e+01 8.5379023685199993e+00 3.0936921107700002e+01
1533 1 3.1027126351600000e+01 5.7017845170000001e+00 3.0971533144900000e+01
1534 2 2.8143939400299999e+01 5.7348349725899999e+00 3.1059391919399999e+01
1535 1 3.0952256436500001e+01 8.4006552260999996e+00 2.8219295392100001e+01
1536 2 2.8256602410599999e+01 8.5506495494700001e+00 2.8211586645499999e+01
1537 1 2.8149145571700000e+01 1.1230362446000001e+01 9.7846620391400005e-02
1538 2 3.1100005776100001e+01 1.1291824906900001e+01 3.3838711503299997e+01
1539 1 2.8138624024199999e+01 1.4091149535300000e+01 2.8634824061800002e+00
1540 2 3.0964365575100000e+01 1.4069713450900000e+01 2.7874438005300002e+00
1541 1 3.0931552899100001e+01 1.1311749356700000e+01 2.7640971556200000e+00
1542 2 2.8281354940400000e+01 1.1377583960799999e+01 2.7293731655700002e+00
1543 1 3.1081854166100001e+01 1.4057835563699999e+01 2.6429423537700000e-03
1544 2 2.8242676062400001e+01 1.4138754301400001e+01 3.0672706628100000e-02
1545 1 2.8148515620400001e+01 1.1187169401300000e+01 5.7073465406599997e+00
1546 2 3.0996827919099999e+01 1.1353189206800000e+01 5.6783824708299999e+00
1547 1 2.8167687395000002e+01 1.4063977202200000e+01 8.4442741693199999e+00
1548 2 3.1043412551399999e+01 1.4110905054600000e+01 8.5140737667799993e+00
1549 1 3.1078681184699999e+01 1.1244054966800000e+01 8.4148348897799998e+00
1550 2 2.8202663116200000e+01 1.1222011387500000e+01 8.4590683428699993e+00
1551 1 3.1029786033299999e+01 1.4042164773700000e+01 5.6577363044400002e+00
1552 2 2.8228270626699999e+01 1.4022742253900001e+01 5.7050354379000003e+00
1553 1 2.8193884899600000e+01 1.1252330349499999e+01 1.1291625993500000e+01
1554 2 3.0943077626000001e+01 1.1279719178900001e+01 1.1201394480099999e+01
1555 1 2.8120051676599999e+01 1.4179077614700001e+01 1.4117583802400000e+01
1556 2 3.1068087941999998e+01 1.4029870838800001e+01 1.4011503732100000e+01
1557 1 3.1012275734199999e+01 1.1241973212000000e+01 1.4016807602100000e+01
1558 2 2.8134811661400001e+01 1.1298219588400000e+01 1.4015521058599999e+01
1559 1 3.1108493367299999e+01 1.4002174149500000e+01 1.1253377279000000e+01
1560 2 2.8181657475700000e+01 1.4038981956700001e+01 1.1321886212400001e+01
1561 1 2.8290411703200000e+01 1.1245686444400000e+01 1.6835953584199999e+01
1562 2 3.0979516945099999e+01 1.1206013261000001e+01 1.6989631269600000e+01
1563 1 2.8157286904199999e+01 1.4120235121900000e+01 1.9691170407000001e+01
1564 2 3.0927570121799999e+01 1.4104307660300000e+01 1.9791769697399999e+01
1565 1 3.1088590340900002e+01 1.1240002451200001e+01 1.9654632501399998e+01
1566 2 2.8152632451500001e+01 1.1276461892100000e+01 1.9819309534700000e+01
1567 1 3.1085689275400000e+01 1.4036656469900000e+01 1.6929530697299999e+01
1568 2 2.8211734201700001e+01 1.4076702567500000e+01 1.6935952454799999e+01
1569 1 2.8286306193100000e+01 1.1201397464899999e+01 2.2647814487600002e+01
1570 2 3.1027395810400002e+01 1.1324763317800000e+01 2.2530228609900000e+01
1571 1 2.8109741102400001e+01 1.4040575954199999e+01 2.5316995657500001e+01
1572 2 3.1017111672100000e+01 1.4096713788700001e+01 2.5403166244200001e+01
1573 1 3.1028458438600001e+01 1.1359583378600000e+01 2.5444784331299999e+01
1574 2 2.8266890494999998e+01 1.1306905477999999e+01 2.5473680169300000e+01
1575 1 3.1118467194099999e+01 1.4000388984200001e+01 2.2560143649400000e+01
1576 2 2.8135594346800001e+01 1.4184697498700000e+01 2.2510483681499998e+01
1577 1 2.8266405152000001e+01 1.1258891690800001e+01 2.8113937447400001e+01
1578 2 3.1008029984099998e+01 1.1313382689199999e+01 2.8225016087099998e+01
1579 1 2.8200732173300000e+01 1.4033626366500000e+01 3.1117981076500001e+01
1580 2 3.1055088526700001e+01 1.4135560326400000e+01 3.0952200874999999e+01
1581 1 3.1094315287600001e+01 1.1225387641799999e+01 3.1023433515699999e+01
1582 2 2.8112178608299999e+01 1.1305741613200000e+01 3.1054554335700001e+01
1583 1 3.1097834758899999e+01 1.4140755452400001e+01 2.8266985133599999e+01
1584 2 2.8164589700499999e+01 1.4187415277500000e+01 2.8139103394900001e+01
1585 1 2.8104267222499999e+01 1.6967057306899999e+01 6.0619452109000001e-02
1586 2 3.1089910661800001e+01 1.6858766237099999e+01 8.0656120621600005e-02
1587 1 2.8227177379400000e+01 1.9653889008299998e+01 2.9088603525300001e+00
1588 2 3.0989704027100000e+01 1.9677410924299998e+01 2.7981336961199998e+00
1589 1 3.1067346549000000e+01 1.6934524052000000e+01 2.8839663368999999e+00
1590 2 2.8214997330300001e+01 1.6995459079800000e+01 2.7670924409500000e+00
1591 1 3.1007570790999999e+01 1.9745070792400000e+01 3.3762611266500002e+01
1592 2 2.8239821238200001e+01 1.9773746619499999e+01 3.3799966656999999e+01
1593 1 2.8194843345700001e+01 1.7013136875499999e+01 5.6769010360300003e+00
1594 2 3.1045640264199999e+01 1.6900459671800000e+01 5.6412019661699997e+00
1595 1 2.8284892308200000e+01 1.9771174060400000e+01 8.5215499154599996e+00
1596 2 3.1052356890700000e+01 1.9653640749800001e+01 8.3936358550399994e+00
1597 1 3.0931123853300001e+01 1.6863461252000000e+01 8.3712489187100001e+00
1598 2 2.8260260133700001e+01 1.7009577999400001e+01 8.4058716394600008e+00
1599 1 3.0943359489700001e+01 1.9725392386599999e+01 5.6379711547999998e+00
1600 2 2.8256970125199999e+01 1.9719910483600000e+01 5.7082232684600003e+00
1601 1 2.8291983694900001e+01 1.6896108416600001e+01 1.1369792717299999e+01
1602 2 3.1000399598500000e+01 1.6971845996799999e+01 1.1320743384000000e+01
1603 1 2.8154684987300001e+01 1.9647932630800000e+01 1.4057937666600001e+01
1604 2 3.0942365411099999e+01 1.9757448571299999e+01 1.4003486409400001e+01
1605 1 3.1060059284299999e+01 1.6932447194600002e+01 1.4092801616299999e+01
1606 2 2.8294458019699999e+01 1.6983364245099999e+01 1.4002213558099999e+01
1607 1 3.0930693693399999e+01 1.9763864583299998e+01 1.1326544027700001e+01
1608 2 2.8234956057700000e+01 1.9664026516400000e+01 1.1324552903200001e+01
1609 1 2.8266566661700001e+01 1.6946428954500000e+01 1.6973401665600001e+01
1610 2 3.1001581376099999e+01 1.6856132354000000e+01 1.6975133273899999e+01
1611 1 2.8119989403100000e+01 1.9665174237300000e+01 1.9795350260799999e+01
1612 2 3.0924046401700000e+01 1.9673856379699998e+01 1.9769168345299999e+01
1613 1 3.1023885737299999e+01 1.6963516772100000e+01 1.9701990943399998e+01
1614 2 2.8262454964900002e+01 1.6962066686200000e+01 1.9748137839399998e+01
1615 1 3.0956280479200000e+01 1.9710233426300000e+01 1.6860085482799999e+01
1616 2 2.8222860665900001e+01 1.9804306222200001e+01 1.6870244279500000e+01
1617 1 2.8284819920499999e+01 1.6938759994400002e+01 2.2622872523900000e+01
1618 2 3.1049262369099999e+01 1.6874747529499999e+01 2.2645770012400000e+01
1619 1 2.8283674850899999e+01 1.9722890970400002e+01 2.5431712122600000e+01
1620 2 3.1079801652200000e+01 1.9756326286400000e+01 2.5381025020199999e+01
1621 1 3.1000632479000000e+01 1.6930388906400001e+01 2.5341402104200000e+01
1622 2 2.8143541359499999e+01 1.6937806899600002e+01 2.5288738870000000e+01
1623 1 3.1021702194800000e+01 1.9807533168500001e+01 2.2465873287699999e+01
1624 2 2.8267016144399999e+01 1.9832197448199999e+01 2.2479212703500000e+01
1625 1 2.8114520336700000e+01 1.6826060364300002e+01 2.8216374222599999e+01
1626 2 3.1001067076900000e+01 1.6954707990300001e+01 2.8136644271600002e+01
1627 1 2.8239871171400001e+01 1.9724828264900001e+01 3.1109858060800001e+01
1628 2 3.1057943686600002e+01 1.9756978804500001e+01 3.1026436608200001e+01
1629 1 3.1002898220999999e+01 1.6841975752300002e+01 3.1080601218100000e+01
1630 2 2.8229568456999999e+01 1.6861004825900000e+01 3.0927777081900000e+01
1631 1 3.0941170495900000e+01 1.9642949979800001e+01 2.8293064793300001e+01
1632 2 2.8217550833299999e+01 1.9723121116600002e+01 2.8174487026200001e+01
1633 1 2.8264090505999999e+01 2.2553003982200000e+01 8.6137584139300005e-02
1634 2 3.1050533600000001e+01 2.2502799942100001e+01 7.6732277534100002e-02
1635 1 2.8247867221800000e+01 2.5321516958499998e+01 2.8424883500300000e+00
1636 2 3.1025242470799999e+01 2.5314203310800000e+01 2.8219689327799999e+00
1637 1 3.1097911821600000e+01 2.2623662781000000e+01 2.8963075290300000e+00
1638 2 2.8295433861900001e+01 2.2659529357800000e+01 2.8716822695599999e+00
1639 1 3.1116378778400001e+01 2.5307957402300001e+01 3.3829956041199999e+01
1640 2 2.8125479677900000e+01 2.5368725897400001e+01 3.3749943649899997e+01
1641 1 2.8103965276000000e+01 2.2560698541800001e+01 5.6228797427100004e+00
1642 2 3.1075929462200001e+01 2.2499738959300000e+01 5.5662432975799998e+00
1643 1 2.8125386644700001e+01 2.5411614891199999e+01 8.3957080163200004e+00
1644 2 3.0975834916200000e+01 2.5416701396499999e+01 8.4574422173299997e+00
1645 1 3.0974095475100000e+01 2.2562845746899999e+01 8.3899581269399999e+00
1646 2 2.8163819764300001e+01 2.2622698566099999e+01 8.5366955102399995e+00
1647 1 3.1109839695500000e+01 2.5354310572700001e+01 5.5934788415099996e+00
1648 2 2.8107202721600000e+01 2.5404380183699999e+01 5.6063111506999999e+00
1649 1 2.8108765255700000e+01 2.2567377495500001e+01 1.1214250649600000e+01
1650 2 3.0951788753100001e+01 2.2469761222399999e+01 1.1361908003200000e+01
1651 1 2.8209174990400001e+01 2.5305318482499999e+01 1.4029448421100000e+01
1652 2 3.1107570942599999e+01 2.5295124563400002e+01 1.4123499806300000e+01
1653 1 3.0925979850299999e+01 2.2536335560099999e+01 1.4188476950900000e+01
1654 2 2.8173379131499999e+01 2.2548913068800001e+01 1.4014176760100000e+01
1655 1 3.0934342260899999e+01 2.5394748661200001e+01 1.1370791265399999e+01
1656 2 2.8273431609900001e+01 2.5410091695199998e+01 1.1375712813700000e+01
1657 1 2.8186349952400001e+01 2.2651554622500001e+01 1.6924823881399998e+01
1658 2 3.0932690586500001e+01 2.2552908986300000e+01 1.7013362630200000e+01
1659 1 2.8183349874200001e+01 2.5477086063700000e+01 1.9717784750600000e+01
1660 2 3.0952328502200000e+01 2.5330906229499998e+01 1.9687939422900001e+01
1661 1 3.1036492630800002e+01 2.2491880932200001e+01 1.9711677993799999e+01
1662 2 2.8294100319900000e+01 2.2483106697200000e+01 1.9770502475400001e+01
1663 1 3.0965293624299999e+01 2.5361056077800001e+01 1.6835566445300000e+01
1664 2 2.8250943712500000e+01 2.5449875219999999e+01 1.6971690151200001e+01
1665 1 2.8165728138700000e+01 2.2568218626299998e+01 2.2522731610699999e+01
1666 2 3.1115877908800002e+01 2.2545430085000000e+01 2.2623675966099999e+01
1667 1 2.8117967243300001e+01 2.5469411867900000e+01 2.5457040844400002e+01
1668 2 3.1058129090300000e+01 2.5376401410100001e+01 2.5415901626499998e+01
1669 1 3.1087151750299999e+01 2.2486648225400000e+01 2.5414960874500000e+01
1670 2 2.8210577494799999e+01 2.2586729769800002e+01 2.5332070353100001e+01
1671 1 3.1102960788899999e+01 2.5381865436700000e+01 2.2574783397899999e+01
1672 2 2.8219825345400000e+01 2.5321198959000000e+01 2.2491174118800000e+01
1673 1 2.8225717093299998e+01 2.2500007615800001e+01 2.8129668461900000e+01
1674 2 3.1033455858100002e+01 2.2653217549899999e+01 2.8275502500399998e+01
1675 1 2.8200936450200000e+01 2.5422713953100001e+01 3.0964905248600001e+01
1676 2 3.0966018579100002e+01 2.5393839776800000e+01 3.1094300177099999e+01
1677 1 3.1109481342199999e+01 2.2634261137399999e+01 3.0963982202699999e+01
1678 2 2.8283491716099999e+01 2.2501656006499999e+01 3.1043283758899999e+01
1679 1 3.1077361642300001e+01 2.5335999355500000e+01 2.8241932805800001e+01
1680 2 2.8203320889800001e+01 2.5410840081300002e+01 2.8249103314199999e+01
1681 1 2.8180727722499999e+01 2.8224839058000001e+01 2.6125467699899999e-02
1682 2 3.0953516945200001e+01 2.8169234645200000e+01 3.3756573562400000e+01
1683 1 2.8251391795899998e+01 3.1034667549600002e+01 2.7960754325699999e+00
1684 2 3.0926168728400000e+01 3.1030778253899999e+01 2.8283806769200002e+00
1685 1 3.1011735402700001e+01 2.8265568672899999e+01 2.7227086286500000e+00
1686 2 2.8284483116099999e+01 2.8294742738099998e+01 2.7498862702100002e+00
1687 1 3.1094131071600000e+01 3.1042948611500002e+01 8.2075865325299993e-02
1688 2 2.8249420763600000e+01 3.1052913301800000e+01 5.6421562100200003e-02
1689 1 2.8156310709000000e+01 2.8199572372599999e+01 5.6378605062600000e+00
1690 2 3.0951791813700002e+01 2.8145843160500000e+01 5.5432102234000000e+00
1691 1 2.8276693843400000e+01 3.0929296613500000e+01 8.3786851291400009e+00
1692 2 3.1059620117200001e+01 3.1093017518700002e+01 8.4993732202899999e+00
1693 1 3.1062542076100002e+01 2.8174743462399999e+01 8.5167476323999995e+00
1694 2 2.8254621485300000e+01 2.8171951363200002e+01 8.5444071773299992e+00
1695 1 3.1011427685800001e+01 3.1054528882300001e+01 5.6202301308499996e+00
1696 2 2.8214726975800001e+01 3.0937220430000000e+01 5.6241317897499998e+00
1697 1 2.8252569392600002e+01 2.8267778136400000e+01 1.1248179320900000e+01
1698 2 3.0930970959000000e+01 2.8133754345100002e+01 1.1236599195000000e+01
1699 1 2.8198967004699998e+01 3.0972631372500000e+01 1.4074075472600001e+01
1700 2 3.0923433885600002e+01 3.1002830477300002e+01 1.4139284213000000e+01
1701 1 3.1009780829800000e+01 2.8138803960299999e+01 1.4186065377600000e+01
1702 2 2.8136845355500000e+01 2.8273665368900001e+01 1.4038131795500000e+01
1703 1 3.0950180380199999e+01 3.1017551453799999e+01 1.1312061476500000e+01
1704 2 2.8190595434100000e+01 3.1021630479300001e+01 1.1304693144400000e+01
1705 1 2.8196665530600001e+01 2.8291370920900000e+01 1.6850264164300000e+01
1706 2 3.0998267687900000e+01 2.8125545181400000e+01 1.6859511433700000e+01
1707 1 2.8224007785800001e+01 3.1093310134599999e+01 1.9710954554000001e+01
1708 2 3.1090951999200001e+01 3.0996028386900001e+01 1.9781859571300000e+01
1709 1 3.0942184928000000e+01 2.8210339261900000e+01 1.9647727737400000e+01
1710 2 2.8128586484100001e+01 2.8160862766499999e+01 1.9649807489899999e+01
1711 1 3.1094481792100002e+01 3.1084261442700001e+01 1.7006364742999999e+01
1712 2 2.8144945818899998e+01 3.1009227196200001e+01 1.6981796150099999e+01
1713 1 2.8155237878299999e+01 2.8229467284100000e+01 2.2529051666299999e+01
1714 2 3.0995378908100001e+01 2.8235074505600000e+01 2.2647868291399998e+01
1715 1 2.8261993619599998e+01 3.0989609106300001e+01 2.5293843210999999e+01
1716 2 3.1113797798699999e+01 3.0988044769799998e+01 2.5423868861999999e+01
1717 1 3.0931474998100001e+01 2.8102356796300000e+01 2.5408318563000002e+01
1718 2 2.8272835141800002e+01 2.8186522468900002e+01 2.5407471721099999e+01
1719 1 3.1060586980200000e+01 3.1089909267399999e+01 2.2478183649799998e+01
1720 2 2.8206906763399999e+01 3.1008458753199999e+01 2.2528051519400002e+01
1721 1 2.8174138748099999e+01 2.8183089482000000e+01 2.8134406485700001e+01
1722 2 3.1092739678200001e+01 2.8157757414900001e+01 2.8179944460300000e+01
1723 1 2.8216962055900002e+01 3.1057249160800001e+01 3.1018106350699998e+01
1724 2 3.1008527095900000e+01 3.0993328138500001e+01 3.1020824385699999e+01
1725 1 3.0966659861000000e+01 2.8104051875200000e+01 3.1103031476300000e+01
1726 2 2.8137705746799998e+01 2.8180104974700001e+01 3.1027711805199999e+01
1727 1 3.0987176941000001e+01 3.1005584365899999e+01 2.8178445230700000e+01
1728 2 2.8190616414400001e+01 3.1073722561299999e+01 2.8204745184499998e+01

Velocities

1 5.8820368994327792e+00 1.3342798305108596e+00 3.2634932577516262e+00
2 6.0172301335620206e+00 5.0147531433043744e+00 -2.6241794610075404e+00
3 3.1679644554672710e+00 -5.0468382428517333e-01 -3.4417181346948517e-01
4 1.1025361135191178e+00 3.8678475049323374e-01 3.9050046524559234e+00
5 2.5375958890377803e+00 4.0571184771578644e-01 1.4800127214354055e+00
6 8.9597987900001419e-01 4.0118902695282515e+00 -5.5088947894560558e-01
7 1.0438895293218069e+00 -2.8478875163226895e+00 -8.5126613929218475e+00
8 1.7550919025242864e+00 2.3211777991797145e+00 -1.9928561193620000e+00
9 7.5682450588674355e+00 -4.8494210406017011e+00 1.5257670093842710e-01
10 -5.0262471379402063e-01 4.1158076074405843e+00 3.9455114908681383e+00
11 5.1665500601765424e-01 1.2609409802192062e+00 -2.9602231125892917e+00
12 -5.3188202817062145e+00 -9.3421117503666029e-01 4.1982711562473196e-01
13 4.1022678253343487e+00 4.0092022517646733e+00 -1.2914983148551078e+00
14 -8.1174114896185245e-01 -2.8155668017939730e+00 -3.8130218454126994e+00
15 -5.6893687109682274e+00 6.5046441980522056e+00 -1.6993786753505999e+00
16 -1.1763139311294728e+00 -3.3639969965393219e+00 2.0877114533315342e+00
17 -5.3813633778784826e+00 -7.0935886969261785e-01 -2.9858339335503659e+00
18 1.0389077755685894e+00 -1.3716102432962913e+00 -3.1702249609602458e+00
19 -9.3970514749819517e-02 1.4282251166877582e+00 2.2179430071897732e-01
20 8.1219534169860241e-01 -1.7032770762307561e+00 -9.7402994280987332e-01
21 -2.2422447816068032e+00 -1.1988901396965381e+00 -2.7113460927364836e+00
22 -4.6354014986058196e+00 4.7642338779527177e-01 -1.0788592500993033e+00
23 -5.4357155852927077e+00 1.5430961046182190e+00 -3.0252857690397943e+00
24 1.3948339929618980e-01 1.9577486791399490e+00 3.4634397462610117e-01
25 3.7992052135200716e+00 -4.1173897454320088e+00 1.3415635794449756e+00
26 -1.8388470795671106e+00 -2.3382581767593025e+00 -1.5543229132311644e+00
27 -1.0388373645906053e+00 1.8727710445769766e-01 -3.8850629192052093e+00
28 2.4188927363174368e+00 1.2503933991198790e+00 -4.1251103822599768e+00
29 4.9624118805644359e+00 6.3216321874677028e+00 3.9305097434935816e+00
30 -4.8313286158040858e-01 -2.8751771579474270e+00 2.8314061142840470e+00
31 -1.3443488139780895e+00 4.0761075077819395e+00 6.9446981495587756e-01
32 2.6224640433720459e+00 9.5691245992039120e-01 1.8972851364473944e+00
33 3.5011154553237361e-02 5.9547870939170640e+00 4.2317429750500712e-01
34 1.0794189173999167e+00 5.0566225665744104e+00 -3.6189928365963646e+00
35 -4.2362913200115822e+00 3.2323458091297548e+00 -3.9116498851311325e+00
36 5.2189974830956043e+00 -1.1106466812999654e+00 -2.0070602278055767e+00
37 6.4118369169046199e+00 4.9366123705338953e+00 6.2271682255945757e+00
38 2.4329045320278220e+00 -2.3125569508423802e+00 5.1288925313102256e+00
39 -8.9362751661638429e-01 2.6757018526403487e+00 3.1585066283558172e+00
40 -4.1623197548406154e-01 1.6489214626390760e+00 2.4763026526652272e+00
41 1.2551491848907879e+00 -3.6658300034370637e+00 9.9444211477590638e-01
42 3.5616017707229277e+00 -1.8650485694135586e+00 -4.0179758026942752e-01
43 -1.4509712560382380e+00 6.1661648037611680e+00 2.2416923041323558e+00
44 1.0941135615834876e+00 -2.0673730479957824e+00 1.4479880096455970e+00
45 -2.2484874678158082e+00 1.0613546629001848e-01 -2.1201582276928432e+00
46 1.8163537678400556e+00 1.5482574705956109e+00 -5.5932230473724642e-01
47 1.3204404629053841e+00 -3.6446923711754500e+00 -4.9724330499059120e+00
48 1.1798514031048932e+00 4.4755045853103553e-01 1.7051817994664049e+00
49 7.9463319410460862e+00 3.1492620986751549e+00 -3.0437044711049119e+00
50 2.9994040192567466e+00 -3.5334650157933072e+00 -1.2394436264383912e+00
51 -2.2754406438876001e-01 5.7129512812659442e+00 -2.4833023545661361e+00
52 -2.2191467581445043e+00 -2.6436400311673391e-01 -1.7815670729353905e+00
53 3.7566425288937677e+00 -3.6009118411785463e+00 -3.8261069575699720e+00
54 -1.1756312024385953e+00 -1.3373131173165143e+00 5.1811654486874970e+00
55 3.1657383819657561e+00 2.9192990423214965e-01 -4.0860788264651235e+00
56 2.2672773281109615e+00 -2.6857709820835707e+00 -4.1480081229655461e+00
57 3.9613535801333848e+00 1.0568099878702477e+00 3.0705016169323653e+00
58 8.5584517743713662e-01 2.3007553323543082e+00 -1.7481291920211508e+00
59 -3.4485680497272226e+00 2.2727013266629728e+00 -2.6788804203194858e+00
60 -1.8515740521449486e+00 -1.2231925680163047e+00 4.6934910790203378e-02
61 -1.1803534361818155e+00 -4.5846225942752508e+00 -2.1460741815687867e+00
62 -5.9702659865222998e+00 1.6788669486400090e+00 -4.3018335744228429e+00
63 -3.6824437599517914e+00 1.7393867125103527e-01 -2.4659907877294454e+00
64 4.1432915782492499e+00 -3.4715699785888954e+00 7.1708305367451630e-01
65 -1.3098420058566404e-01 -3.8948782168548912e+00 1.7448079887739087e+00
66 -4.6063496194301407e-01 2.0724063793920320e+00 2.2112673696853795e+00
67 7.2130703518713819e+00 4.4565042152395353e+00 -1.2309958932577338e+00
68 -6.4277922801963272e-01 2.9527979554717310e+00 1.7595094078286853e+00
69 2.1344475778188010e+00 -5.3915605957713080e+00 -8.1112763837085308e-02
70 -1.9817552340089928e+00 7.5165149909351547e-01 -2.6355271299449623e-01
71 3.0348906225621710e+00 1.0577289563955201e+00 2.6219233792881793e+00
72 -1.2524251690122536e+00 -2.5360202229478146e+00 -1.1010624562899656e+00
73 -5.6752682314363638e-02 1.2642394111018351e+00 7.5334151197721573e+00
74 -1.1346859654959415e-01 -2.5668965683160954e+00 -9.2902774980240554e-01
75 -1.5458093607766530e+00 1.6054465739650416e+00 -5.1376167573574216e+00
76 1.6987064709157518e-01 4.2025021838627286e-01 6.2345083110779453e-01
77 -1.9916841846045772e+00 -7.9332362028996106e-01 -4.7483731607069766e+00
78 -1.3246589657686905e+00 -1.4576876903378420e+00 1.1171745607181247e+00
79 -3.8551620885841191e+00 2.6048184287323024e+00 4.9831929627395288e+00
80 -5.5583087462499794e+00 1.1445868461941384e+00 1.8176285364629168e+00
81 -2.1254630645929913e+00 -1.3246588041041212e+00 -4.4307554839347191e-01
82 -7.9962590527498045e-01 -8.2975937883804973e-01 -4.5003932409662069e+00
83 3.8423217995367080e+00 3.5998684563925356e+00 -2.7120729134001715e+00
84 -3.9376319482722701e+00 1.3991596195881169e+00 -1.5461016721976344e+00
85 4.7332707929707846e-01 -1.0647651907713531e+00 2.3058592679976280e+00
86 1.8655353516905833e+00 -1.9483688076167753e+00 -3.7145988398969383e+00
87 -5.2781325247729418e+00 2.0352423434419227e+00 -3.9641193406208073e+00
88 -1.3608995914463229e+00 -1.6012181225366291e+00 -1.4115332192793179e-01
89 -6.4563102629293878e+00 6.2946129387976590e-01 1.7468565150678932e+00
90 2.3743034555470055e-01 -8.3478928898458649e-01 2.6153821864215743e-01
91 1.3305757819513584e+00 -9.2449030425203382e+00 6.5217726647870187e+00
92 1.0474757552102785e+00 -1.7518427842668172e+00 -1.0497851619322640e+00
93 1.6463271964678341e+00 -3.8713570780974782e-01 -6.7710921378830298e+00
94 5.5435612283181293e+00 -2.9682296948378012e-01 2.7393603517389784e+00
95 -2.3075634633062325e+00 5.1228788902850804e+00 9.5478127269527324e-01
96 1.6348630397667485e+00 -2.8067067427523393e+00 3.2521585302670539e+00
97 2.3001221630228161e+00 4.3408618668219061e+00 -2.0942883074480911e+00
98 -1.2916505227889472e+00 6.1864603736852173e+00 -2.8463467838652723e+00
99 -4.5330919895014432e-01 3.7908381578139667e+00 3.2585306632686195e-01
100 1.5653429844547588e+00 -1.0725976305158962e+00 9.9367138079209916e-01
101 -4.3564688823285866e+00 5.5288528505913828e+00 -3.9400490309782904e-01
102 -1.8264095704071965e+00 1.7893670091583356e+00 -1.2371214249704465e+00
103 -4.4489368924405106e+00 -4.4904801608185965e+00 2.3133096323854638e+00
104 -4.2848543646434206e-01 -3.5901445639080914e-01 2.8939498356687094e+00
105 -3.7572756848689592e+00 -2.4363639286383783e+00 -1.2833390373169840e+00
106 2.5335220196592972e-01 -1.1323847453869743e-01 -7.7034740414969871e-01
107 -2.0548640290321871e-01 -3.5779754273804787e-01 -2.3994410234655232e+00
108 -2.1830428647137170e+00 7.3712932880549975e-01 -2.3922787064354227e+00
109 -3.8590727513694629e+00 -1.0413038755494661e+00 -5.2572317880414499e-01
110 6.0597375349700782e+00 -1.8922560595581461e+00 2.5328368438596618e+00
111 2.4914166309540557e+00 -3.9644050891622586e+00 2.5783262929102020e+00
112 -3.1789476915947854e+00 -7.1403899688336105e+00 1.6280847805876477e+00
113 -5.8548224074845781e+00 1.5035909504790130e+00 -2.2807584759608943e+00
114 4.4562137377046867e+00 2.8691536740125252e+00 -1.2174282656736954e+00
115 -2.2935182270166963e+00 -4.0482064492535441e+00 -1.4702076153626760e+00
116 -7.5280853828066385e-01 -9.7927245511351357e-01 4.2078005338506119e-01
117 1.9290157712920593e+00 1.1658840072326750e+00 -2.5479531642976778e+00
118 -3.8607472167885444e+00 3.6640310022508640e+00 -1.8513039400146296e+00
119 -2.1750006641537363e+00 -1.7378479576032511e+00 -6.1455110031304612e+00
120 -1.2834523221350318e+00 -1.2879683060376725e+00 1.6657815944677943e+00
121 2.3289278989441518e+00 1.2573611434947294e-02 3.1071450536860925e+00
122 9.1287150392256289e-01 -4.2109492110735731e-02 4.3212314802333107e-01
123 -6.3571292927614620e-01 -1.3165819124226992e+00 -8.9272778487879711e-01
124 -3.0289278298222637e+00 7.5304002910003520e-01 -2.6667283028780182e+00
125 2.8063261060894438e+00 -8.3179196849848358e-01 1.6503552690375697e-01
126 1.3260469228778062e+00 1.7274233265165879e+00 -4.2174265628879137e+00
127 -6.8989736081623076e-01 2.9348589631118931e+00 -5.6621455207231977e+00
128 1.0399227181008990e+00 -6.0566246772402712e+00 -2.7456279458075210e+00
129 1.2880929065899865e-01 -5.5241327650964802e+00 -3.2860762534036794e+00
130 -3.9521606659778983e+00 4.4255599427003132e+00 4.4098317556489752e-01
131 1.8915665142512958e+00 -7.4248542613204904e-01 -1.1784789676864882e+00
132 -4.3405447441860767e+00 -7.8363956562119053e-01 -2.0447533532693636e+00
133 2.8606521745960700e+00 3.8048776166047538e+00 4.8901440712055679e+00
134 2.2892662722083070e+00 -1.6075012009105059e+00 -2.9963984772967636e+00
135 2.5563533498203768e+00 1.1880188840004451e+00 -5.8969953180395356e+00
136 9.5453712653181955e-01 2.1871427080969781e+00 1.5822656384871470e-01
137 -6.1704094197689618e-01 -2.6930143069674890e+00 -4.8233095228670297e+00
138 2.1489542376730562e+00 -8.3003186071626911e-01 -6.2690298293709024e-01
139 5.7775666244736978e+00 2.2823930239098136e+00 1.2364748391698988e+00
140 3.8146332690262358e-01 4.0814791540794753e+00 4.6174287117400246e+00
141 3.0993317043179078e+00 1.9413633264273547e+00 -6.9842216318934627e+00
142 3.3221718499262748e-01 -3.4936224789263032e-01 2.5228252877279789e-01
143 3.1444825864585977e+00 -9.1351496608240872e+00 -1.8983079008160340e+00
144 7.2474521244828094e-01 -1.2535702676187011e+00 -3.8046659980804760e+00
145 2.8974623717205810e+00 9.2319866262803951e-01 -3.2380404865077530e+00
146 8.4534486973828804e-01 2.2061159833997075e+00 1.4211775380526096e-02
147 2.6693945476913807e+00 2.6094987436693834e-01 -1.3178472084528516e+00
148 -3.1132675449404146e+00 -2.3074067099937662e-01 5.2171398528226454e-01
149 2.9203672063160111e+00 -3.8381308728724900e-01 1.5252016077178252e+00
150 -2.5901691692861091e+00 -2.1015101217352683e+00 -2.9641654353008817e-01
151 -3.5165416460185228e+00 2.7350254411963753e+00 1.5442567180761182e+00
152 7.4942591831250349e-01 9.1002289415869964e-01 5.4268914840481601e+00
153 -1.5633756338055016e+00 -7.3404618082044015e+00 6.6454440248833480e-01
154 -1.3588026044613916e-01 -1.3896383720542540e+00 -2.6283468250350843e+00
155 -1.4644287506487774e+00 6.0465288027453812e-01 -1.6765865217044242e+00
156 6.4779030886193487e+00 -2.5791393854204587e+00 -2.1296729786303401e+00
157 -7.6311496962763830e+00 8.3854689015904238e-01 -6.7234842639961085e+00
158 -1.4485396612330395e+00 -7.4022851605959505e-01 -1.9057563761840142e+00
159 5.7980780874120352e+00 3.3156978111657351e+00 4.3985156106873209e+00
160 -2.3694645988898015e+00 3.0304925803587053e+00 1.3318581366036155e+00
161 2.5721675804751474e+00 3.4325496011783843e+00 -3.0301702541866868e+00
162 -1.1393745922650018e+00 2.3162365409942671e+00 -7.1308490896423304e+00
163 5.0460246505670394e+00 1.8443575211163654e+00 -1.5239478786909724e-01
164 5.9210555477432170e-01 -2.7655747380347884e+00 -9.3966537949956930e-01
165 3.6687760950370620e+00 4.3281103052013963e+00 8.9902600694185253e+00
166 -1.9850197667365066e-01 -1.7683416406537507e+00 -1.3808173083205604e+00
167 -3.3945477237656698e+00 -2.5959804893953636e-01 1.2761788396402844e+00
168 -9.1947122840205231e-02 2.9439025826517491e+00 -6.2891456768619580e-01
169 -1.1585356655657926e+00 -1.9381752685428499e+00 -5.4438387548706491e+00
170 -4.2097585000911488e+00 -3.1662663062167029e+00 3.4945852003456856e+00
171 2.9851460880806284e+00 4.5846651843436614e+00 -4.4421120088025416e+00
172 -5.2861367106990320e+00 -1.7723784340878819e+00 4.7210777568569140e-01
173 1.6628274127539133e+00 3.4943469251763370e+00 9.4789903330753600e-01
174 4.6794015455602906e+00 -5.9773915677090128e-01 -2.4517936807913041e+00
175 -5.6058356783694085e+00 -2.9641763991918166e+00 8.0731548799290831e-01
176 -2.3863851765719533e+00 2.5153340556257087e+00 3.7923720926376121e+00
177 -7.9011247284218014e+00 2.8810865653643747e+00 -7.4677113427388200e+00
178 1.0781023449697942e+00 3.2890135376400877e+00 1.7415114543394417e-01
179 -4.2669816197902888e+00 -1.9520554214349541e+00 -8.7242772004922386e-01
180 -4.8936236903040103e-01 -5.4481712234245860e-01 -2.9505644046541946e-01
181 7.1182554636354622e-01 -4.0298548074215770e+00 -8.0698828067382611e-01
182 4.0768238611893715e+00 -1.0328470949417152e+00 -1.1917854519115803e+00
183 3.5951293281136740e+00 -8.5333174348866372e+00 3.9391759212032822e+00
184 -1.6967833788485449e+00 4.4017981145420554e-01 2.5864140493670745e-01
185 3.1425554159235736e+00 -8.9226500282068055e-01 -2.2608017698823728e+00
186 3.4849660854008162e+00 -6.3482623529535509e+00 5.4601196943128122e-02
187 -4.4945078255253454e+00 -2.5393819982670971e+00 6.7063123391088677e+00
188 -1.1974731503708214e-01 5.2379973318781292e-01 -4.7838396332349031e+00
189 -2.4309185575853580e+00 6.5539885286629773e-01 1.1829001820832867e+00
190 1.6564592928423523e+00 2.3167571473137433e-02 1.4151078707175344e+00
191 1.5130854594647059e+00 -6.1010664669410195e+00 1.2339147546454815e-01
192 2.0619659647727162e+00 1.5839410078841585e+00 -9.7703103231267541e-01
193 -2.6862722386553175e+00 -3.7288870814812523e+00 -4.3698506649609759e-01
194 3.0425378583188074e+00 -5.2409701892219474e+00 -1.7719364771295953e+00
195 -3.8005448739712535e+00 2.6173537962056290e+00 -1.8482839722166400e+00
196 -1.2637528194771763e+00 -5.8255140858623566e-01 1.1959667205578353e+00
197 -1.3083775950999650e+00 -1.0157026173424274e+01 1.8116132439873676e+00
198 1.1789149593447035e+00 -5.8950997383477188e-01 -2.9108472559586240e+00
199 1.1729717637031083e+00 1.2645188261739304e+00 -1.5672725167782431e+00
200 -5.8196576976674552e-01 -2.4976494809803884e+00 -4.7954613223704606e-01
201 -5.1697346955664552e+00 1.3915033245742674e+00 -3.1488919942696332e+00
202 6.3935284222519440e-01 -3.7752814054023900e+00 -1.5844185026444306e+00
203 -3.6841466699088277e-01 -5.5374193371442848e+00 3.8394781212101403e-01
204 -1.0180842805184358e+00 -4.6785622003727267e+00 -3.4994579724662689e+00
205 2.0177058074808483e+00 2.9861321091530333e+00 -4.3983472957212078e-01
206 1.0868634762215150e+00 6.0106310950040742e-01 8.8510123618581704e-01
207 4.2879710452001314e+00 -5.0249190200872453e+00 2.2555832868926249e+00
208 -1.0257676713966259e+00 -6.0217846052651647e-01 -8.1159877972022121e-01
209 -1.2508864535462794e+00 -4.0886152060613972e+00 6.1132422607001091e-01
210 4.4868040886310538e+00 -1.5072797858125367e-01 -3.7191066869492152e-03
211 -2.2917224121728084e+00 -3.9170584611899417e-01 1.5543802458451155e+00
212 -9.9417231116753380e-01 -1.2185513131653849e+00 1.0828430126576385e+00
213 -3.0609850905353464e+00 8.4192199899475417e-01 2.7352720524026588e+00
214 3.6517239411514901e+00 -2.4269310911937561e-01 3.6722621697783979e+00
215 3.4491250417428905e+00 -3.3217605609824581e+00 -4.0610808873142537e+00
216 -8.1888614414655247e-01 2.7628901072748677e+00 -1.9410454737873620e-01
217 -2.0028260080503570e+00 5.1757827270880075e+00 9.5665119513380192e-01
218 -6.2312428852189363e+00 8.5163740886350048e-01 1.3964092790263407e+00
219 7.5226703644243098e-01 1.4995151213809166e+00 -2.2432305652456042e-01
220 -3.5401470081737751e+00 -9.9541169548154407e-01 -2.5391606622846492e+00
221 -3.1101211182559982e+00 -4.2115613252110444e+00 1.5087746945724962e+00
222 2.6287001823484579e-01 -1.2034103749799776e+00 -1.7435974846977735e+00
223 -7.8101745875287301e-02 3.5984551291469145e+00 -6.6828350190033330e+00
224 1.0119860949661146e+00 -1.4653418268552700e+00 -5.0604762153483174e+00
225 -6.4877311360239638e+00 -3.0435753258511227e+00 7.3193026834162800e-01
226 1.0554497338713542e+00 -2.5213464952232565e+00 2.7308973752866192e+00
227 4.7447806483317585e+00 1.3207067882142709e+00 -1.9719666042914918e+00
228 3.0192822229109559e+00 2.0283830324123584e+00 2.3291560773801128e+00
229 -2.1889053168667001e+00 -9.4515076219766847e+00 7.0582048912641602e+00
230 -4.3255189824295623e+00 -9.6044166626695820e-02 6.3927601158333047e+00
231 1.1022715300628088e+00 3.1651570866867762e+00 -5.0095747322264792e+00
232 -4.7733783882573393e+00 -1.4304096657860528e+00 2.9288732602485807e+00
233 -1.1545303812129781e+00 -2.6496266807820374e+00 6.6009997208912274e-01
234 2.9052045860567284e+00 -3.8799429219374200e+00 -3.2505412506080682e+00
235 -2.6297301591283215e+00 3.6499502559033874e+00 7.8298633459988687e-01
236 5.7252428433596725e+00 2.5145372576989891e+00 -9.4237313888105814e-02
237 4.2182617433673197e+00 7.0521333216237492e-01 -2.3504820682474565e+00
238 1.8258635102796510e+00 -1.8697712706292338e+00 -7.7977218471578913e-01
239 4.4273441374377178e+00 -3.3771188282587150e-01 -2.6779858809766224e+00
240 -1.2468361946253907e+00 2.7437046549050663e+00 -1.4836782008560578e+00
241 -1.2899779316027298e+00 -1.7015145445648057e+00 6.1327916199826238e-01
242 -1.0351143031440744e+00 -4.3012385178991117e+00 -2.3822518177547409e+00
243 -3.1102816047772643e+00 4.1457105929209916e+00 2.7097714610472217e+00
244 1.5769046178554105e+00 -1.3569844809976723e+00 -2.1905575200729799e+00
245 -1.6922611547689987e+00 -3.5073775396353781e+00 8.3266377452849198e+00
246 -6.0291213730908977e+00 1.5144716196388410e+00 -3.4492704955199840e+00
247 -3.4792179982094645e-01 -3.2943828995457349e+00 -3.9266731664722085e+00
248 -3.0616468212794139e+00 4.7124760662596206e+00 -3.5709954513731740e-01
249 -2.5531490446935501e+00 1.8532099902998598e+00 3.4508641595562849e-02
250 1.9334294179822857e+00 -4.8984807153557499e+00 8.1523499792263154e-01
251 2.5764652359815647e+00 -5.5404152165388565e+00 1.4944574672944644e+00
252 4.5545744329320339e+00 -3.9895797074711623e-02 2.2056332528090730e+00
253 2.2359427946761894e+00 -2.3590992800348696e+00 1.3259776601436635e-01
254 -4.2076828100012760e+00 -1.2118356355354554e+00 7.1342341958180133e-01
255 2.4110983984608780e+00 8.2066401948103510e-02 2.4007058959297920e+00
256 -2.9615157480297221e+00 -2.7307678258417972e-01 5.1768863188105869e-02
257 6.1672568768755349e+00 -7.1411496222126347e-01 -1.6639156342622938e+00
258 5.7332151101895767e-02 -2.4679967428185421e+00 5.1758123473648565e-01
259 -1.2172361318890659e+00 -5.9729830356983236e+00 -1.9535035701610165e-01
260 -8.5266440818428957e-01 -4.3833711876284829e+00 -1.8026814409614161e-01
261 4.9660922734732074e+00 1.7382295316686549e+00 2.0404033563054842e+00
262 -3.6021772586616603e+00 1.2805640345322833e+00 3.9861573711464016e-01
263 1.7640426716732915e+00 1.4092082660302745e+00 -4.5340380181085163e+00
264 -1.1116915832905275e-01 -2.0350293268433952e+00 -1.3448544600438125e-01
265 -2.9922838614668317e+00 4.3762868752631325e+00 -2.8641481620274680e+00
266 -2.4138329457830454e+00 2.0027887681925624e-01 -2.8922185937102607e+00
267 -1.4159926832414333e+00 -2.7674249004573790e+00 4.7053967362256275e+00
268 2.1100347252434140e+00 -1.5431673334298129e-01 -1.0504931854600026e+00
269 3.1373854301478521e+00 1.3511080653066065e+00 1.6607005052272359e+00
270 -7.0331205373551448e-02 -4.5332230019308719e+00 -3.0199283906040464e-01
271 -1.7755285780057741e+00 2.1508652673134723e+00 3.3738763710092075e+00
272 -1.7667253639559091e+00 1.2577046272493984e+00 4.6611696696719198e+00
273 -2.2264140118031794e+00 5.6081815030503233e+00 -2.8428529484713079e+00
274 6.1651368906209467e-02 -2.9928115920746130e-02 3.0876762366724177e-02
275 -2.7931445252234317e+00 -1.9712344923393306e+00 -2.2264392390869578e+00
276 8.7795758508992483e-01 8.8620789106447095e-01 5.9770895432856799e+00
277 4.5714107873014758e+00 -1.7000157450202711e+00 1.0832417031080235e+00
278 2.6774539558042085e+00 8.2171796325375357e-02 -1.8700106034908417e-01
279 1.7197092657259616e-01 2.8918377305116256e+00 -2.8286306974350697e+00
280 -8.7448529098316785e-01 1.2632036618279348e+00 8.3629541320091849e-01
281 7.9886214100421493e-01 -1.2330609749899795e+00 3.2428127265222542e+00
282 5.7298475102275459e+00 1.0913039301321479e+00 -5.1871667515525977e-01
283 2.5199321753840818e+00 -1.7976779829229088e+00 -2.4997593074665767e+00
284 8.8097810665857479e-02 -6.9353067492495448e+00 -3.0985791305342301e+00
285 -1.1602402166806480e+00 -4.5127250453212859e+00 -3.4432338944807985e+00
286 -1.1727534618213529e+00 -4.4116784664935675e+00 -1.0903810363274042e+00
287 -1.7847989976853891e+00 8.4710849709208391e-02 3.8484986409957211e+00
288 4.6320760554911616e-01 5.6555586646589689e-02 2.6705438526722380e-01
289 7.5821598887599873e-01 -3.3902022589479923e+00 -3.8270559090234113e-01
290 8.2905659083440464e-01 -3.6807547435898731e+00 2.3244449375051688e+00
291 3.6057284532314888e+00 -2.1052532085934055e+00 -8.0471409921573556e-01
292 -2.3581103265621866e+00 1.8779713920187855e+00 -2.8495863741755545e+00
293 -7.4182491608915624e-01 -2.8639731711650320e+00 1.6990138543758279e-01
294 -4.8178514008495528e+00 3.5618051624688176e+00 -2.5901541603275819e+00
295 1.9971217802865987e-01 -7.0863452219896750e-01 -2.5411863151160188e+00
296 -2.3838607712528073e+00 2.5144105641872225e+00 -1.4114463006820244e+00
297 9.0418690562592874e-01 -2.6725024716225603e+00 -2.1579547066490781e+00
298 1.2680746155193834e+00 2.4983261323283723e+00 -4.7075832947583018e-01
299 -4.7412341091487562e+00 6.6619629578446808e+00 -2.8560686698066924e+00
300 -4.1394592826334291e+00 6.9665300489714612e+00 -1.0849045792804342e+00
301 -4.8739855305962001e+00 -2.2788541031562159e+00 1.2255376919754963e+00
302 5.1102321142634177e-01 -2.2870570508113475e+00 4.8943641650360510e+00
303 -1.7391495887092714e+00 -3.9502060440510824e+00 3.2033255882139566e+00
304 3.5687898970134415e+00 -2.1951265248643788e+00 -3.7628875674514655e+00
305 3.4358821184534576e+00 -6.8265735223866839e+00 -4.0900338806310081e+00
306 2.5977793715270656e+00 -1.4863225969379104e-01 -7.0872265036563531e-01
307 1.1764278440355473e+00 -5.0940937134761088e-01 -4.3303268398061059e+00
308 3.4265082456496478e+00 3.5579181057200020e+00 5.5135750807158801e-01
309 1.5049436871728711e-01 7.8012194316656069e+00 -9.2173466298496254e-01
310 -6.9701422523280376e-01 9.7870240171634870e-01 3.9507830242985080e+00
311 5.3109174289733678e+00 -8.6218176245326050e-01 1.0280963431309635e+00
312 -3.7004197110047596e+00 -8.3771597779572227e-01 -2.2563416634146658e+00
313 -3.3571688119575467e+00 5.6070310594358821e+00 -2.6417920025586294e+00
314 -1.4274643209261451e+00 9.8237450663196602e-01 3.4849109753711067e+00
315 1.6042250292420002e+00 9.2007635920861759e+00 -2.4897209217359403e-01
316 6.9470350517065038e-01 7.4004092694726364e-01 3.8533841846699741e+00
317 1.6913320254222362e+00 -3.8755504509261279e-01 -3.1592956352873114e+00
318 6.5637779153800002e-01 3.7628809571853683e+00 -1.1019542100191686e+00
319 1.7637038313277238e+00 8.2075250151594736e-01 2.8793105293019385e+00
320 -2.1609188960850640e+00 6.3011995529059730e+00 -3.4347941087213867e+00
321 -1.2188895668774888e+00 3.1279655353213696e+00 9.8942385348474249e-01
322 2.2286728027207650e+00 -1.3321303819539843e+00 -2.0086579587332989e-01
323 4.0786192814088275e-02 5.2325221406207909e+00 2.3021590074373623e+00
324 2.1392181558356036e+00 -1.7666583624243537e+00 2.6016366200424832e+00
325 7.5217703827222804e-01 4.6319509872648323e+00 6.7156602104169565e+00
326 -8.2372523247114526e-01 -1.0910022132004424e+00 -2.3201273309532220e+00
327 -4.7874995764633588e-01 -1.2738214896995581e+00 1.1987275483172479e+00
328 -3.8818976624000012e-01 -9.7096376095428005e-01 2.8586162710179415e+00
329 -3.1272576119929414e+00 1.4441504344796270e+00 -1.3535676669687120e+00
330 1.9450690451736106e+00 3.7196942383385658e+00 -8.1387722743023339e-01
331 1.4705753150549332e+00 5.9616498115933569e-01 -2.6655853286293478e+00
332 6.4656087131723039e-01 7.7634427968913888e-01 1.1086377266629621e+00
333 -6.6153911734524984e-01 3.1407377866829567e-01 -3.8265814159031613e+00
334 -9.6160531300553753e-01 1.4928669472859319e+00 2.3964643965103720e+00
335 -1.4081619427906937e+00 3.4915731748141610e-01 7.6041851960026396e-01
336 5.4101248870334584e-01 1.4520813013593992e+00 -4.8818888408414285e+00
337 -1.6446564145412890e-01 7.9703103252670993e-01 -3.3354906035628606e+00
338 4.4949742553399661e+00 4.3381777031057311e-01 4.1980430598362464e+00
339 -2.6359113406708961e+00 -3.0252916280351942e+00 7.4774415935845084e-01
340 -4.5076017925673559e+00 5.7722404175943098e-01 2.6105237526633435e-01
341 3.3866232355062622e+00 2.3375446007521887e+00 -1.3920319214530790e+00
342 -2.9469900417031591e+00 4.5978695367517117e+00 -2.1269814967934235e+00
343 -3.4861856781082388e+00 -3.6173322106408921e+00 3.7255306561291319e+00
344 -1.3933470579898046e+00 -2.0238417552957504e+00 3.6972371990140807e-01
345 -6.9003418544969586e-01 -2.2610341075194436e+00 2.5141009226639839e+00
346 2.8605774175613541e+00 2.6457674145434460e+00 2.0593271236448287e+00
347 1.3425101790057647e+00 -5.9215015750030542e+00 5.5659316799532377e+00
348 8.1089923304760991e-01 1.6330172198220076e+00 2.9938887269666234e+00
349 4.7793549500490551e+00 1.3951017648628641e+00 1.4522803624503229e+00
350 -1.6090326751749853e+00 8.8852359289219321e-02 -2.2935876102105133e+00
351 -2.4005618569855751e+00 -2.9795247396230105e+00 -5.2024436017271369e-01
352 2.8170174042727414e+00 8.5146784172516536e+00 5.0884304961910654e-01
353 -4.4961338908051740e+00 4.2179466161477706e+00 -1.0029304766553981e+00
354 -1.7738613957973977e+00 5.6348629310885223e-01 -3.3313161589085296e+00
355 7.4177874735650129e-01 -2.9467838052104822e-01 3.2803021934145854e-01
356 1.0241761539887855e+00 1.8122971866585239e-01 4.3870904728436140e-02
357 9.4801523073456828e-01 1.3851073165551284e+00 -3.4393638638676021e+00
358 -3.8398021358441383e+00 -1.6551004975912523e-01 -3.8471709256502664e+00
359 2.9186398181425222e-01 3.1301473420629433e+00 2.0243465362291286e+00
360 -2.8145395591836895e+00 -2.3099704843297935e+00 8.8155225151735750e-01
361 -1.3380830239262977e+00 -1.0558519616239375e+00 1.9903184597875896e+00
362 -2.6510550545002212e+00 -1.0773925272159004e+00 -2.1483756504534646e+00
363 -3.4781996193911273e+00 -2.8578321629664445e+00 2.2589224674506432e+00
364 1.3914773325103702e-01 -2.3607157315452958e+00 -6.2055235725591085e-01
365 -5.4644212081274688e+00 -2.4451502263486899e+00 7.1675178806752955e+00
366 -2.4232212930580527e-01 1.9646452337781137e+00 -1.7584890902333938e-01
367 1.1609317000262929e+00 2.2115605391517734e+00 -3.6832215332093603e+00
368 -8.3069813213243582e-02 4.2395573461781293e+00 -2.1360722959717888e+00
369 -1.8887308693408205e+00 -1.0259624388376769e+00 8.9703093498076580e-01
370 1.4095056327988118e+00 3.4032445650333361e+00 1.3412490265755006e+00
371 -2.0690926576259067e-01 4.1985531414947186e+00 2.3477801115149188e+00
372 -4.0161877677081081e+00 6.7837856394768439e+00 4.7525800492805477e+00
373 -5.6089166944906077e-01 1.2600993208479609e+00 4.4159273693712660e+00
374 -4.6239231713862511e-01 1.9611353199356496e+00 2.9660060900835026e+00
375 -3.3838244366382120e+00 -2.0084087621190587e+00 3.0723341105822399e+00
376 1.2373756852266169e+00 2.4805718103758210e+00 -3.5597066955493517e-01
377 -9.6365582282574380e-01 -6.6642416654567196e+00 -3.8212113211327838e+00
378 1.2638153534005622e-01 2.2140950537830570e+00 1.4263162896624484e+00
379 -4.2760863928516923e-01 -9.0619214671775372e-01 7.2416139799007739e-01
380 2.1001209509532975e-01 3.7714754096564267e+00 3.9322169267940510e-01
381 -4.9390503783497310e+00 -4.2432039638979386e+00 5.0641345659600931e+00
382 -3.1447915600730436e+00 2.0528230051588618e+00 -7.2063251827610753e-01
383 -5.6604020339965444e-01 -4.4725088769101107e-01 4.0725726854836228e+00
384 -5.1781747659346011e-01 -8.9468696159181071e-02 -4.1105024266202266e+00
385 6.8918658757952966e-01 1.7707023424516304e+00 7.9740441543997009e-01
386 3.7536208815316185e+00 1.4814572091670949e-01 8.0281209245320062e-01
387 5.4967537893221259e+00 -5.1683504048445830e+00 -1.5198990673839194e+00
388 3.8295111167955529e+00 2.5136871860428154e+00 1.8215813115084063e+00
389 2.7763815427956855e+00 1.0905659999290713e+00 5.4403806642710260e+00
390 1.0143561773238687e+00 6.4408940959690308e-01 4.2683467658375313e-01
391 6.4308346955296558e-01 -3.8579457999627089e+00 2.5697238260043385e+00
392 -3.5025582522832371e-01 4.8921931806227335e+00 -2.0313609385981374e-01
393 1.4035053352166955e+00 8.2226763983825291e-01 -2.0858505540514400e+00
394 2.6640786019189076e+00 5.1154630432258070e+00 -3.9679682842167135e-02
395 -1.0019131849178142e+00 -1.1838039280410253e+00 -6.3098708544656272e+00
396 -4.7746256127442166e-01 6.7397831706159972e-01 2.8322283155974617e+00
397 3.2011727155201308e+00 -1.3887699971446468e+00 -9.2303557408230430e-01
398 3.0179023590340477e+00 -4.6578399582986685e-01 -1.3695276136845309e+00
399 4.6431983276665481e+00 3.4597143298299136e+00 6.2659145503989433e-02
400 -1.5944068876984174e+00 -5.4022864125758403e+00 1.5834678362176593e+00
401 -2.9888454249321321e+00 -6.5445122010429060e+00 5.2844082785604121e+00
402 1.7399184035328932e+00 -3.0584565228007023e+00 -3.2609017682707107e+00
403 2.9041254656867808e+00 -2.9274956465358759e+00 4.3218679793834589e+00
404 1.6553120663541074e+00 1.4408650774922311e+00 1.0866852964281131e+00
405 6.3837169925674875e-01 2.9359669375811746e+00 -1.5140806074887088e+00
406 2.3079761443910107e-01 2.0191215127131947e+00 1.5117359010100233e+00
407 -3.9845509681119169e+00 -1.6685605359981286e+00 8.4294525079171256e-01
408 -1.0955981316049730e+00 4.7653002711944703e+00 -1.0556921014458165e+00
409 -5.4089942205846997e-01 2.5655795928739407e+00 1.1021247734641506e+00
410 -3.9008991675324234e-01 -2.0313309261896162e+00 8.0962335577031896e-01
411 3.4647518359338956e+00 1.5974898890780722e+00 -2.5947666452179958e+00
412 4.6635754930490245e+00 -3.8843404378086208e+00 -4.2498159837360143e+00
413 3.2028715311023541e+00 7.5304002829796557e-01 -1.8322419586546008e+00
414 -2.9498741341402086e+00 6.2317948628072308e+00 3.1441155899346490e-01
415 1.7812345567962076e+00 1.0599526006180293e+00 1.4498189112062554e+00
416 1.4502577204473097e+00 1.9666996283499172e+00 -1.0075444637206143e+00
417 -9.7244785794857913e-01 -5.8052474604451803e+00 -2.6018385011780043e+00
418 7.2799011079812703e-01 2.8060891735457396e+00 1.6085365829080922e+00
419 -1.1360008350233852e+00 -4.2119099788805423e+00 -9.2607960380109464e+00
420 3.0926276992441131e+00 -1.5821933925545986e+00 -1.2042149755913223e+00
421 4.3871880333319258e-01 -4.6866840896336592e+00 -1.1663098858052914e+00
422 5.4334121746240251e+00 1.3570613347391633e+00 9.6465322434814149e-01
423 -5.2766523249236634e+00 7.4810416832235491e+00 -4.7441518229293207e+00
424 5.1618124634740301e+00 -5.6793330415277588e+00 3.7736770630446070e+00
425 5.3952225041957558e+00 -2.7489007811836026e+00 1.4090473836373902e+00
426 1.4700908535854782e+00 -2.1851950323964195e+00 -3.8911600773784802e+00
427 -4.3937823348007292e+00 1.8039319071081386e+00 -2.8380853656696159e-01
428 -1.5152570337559776e+00 2.5959584379244984e+00 1.3642602580862297e+00
429 -2.5190066739154457e+00 -4.0052732418431889e+00 1.7447582335411258e+00
430 -1.4435149545467205e+00 2.6638417593179059e-01 4.2326665460800719e+00
431 1.6749578041156057e+00 -2.8751336780369576e+00 5.3570691878096932e-01
432 -2.5580353042747506e+00 4.3191920037625469e+00 -1.5079471773508619e+00
433 6.9112131771976792e-01 1.0261001401457575e+00 5.3100302457988457e-01
434 -5.2590814212402384e+00 -3.8839193296319507e+00 -1.2146476726554258e+00
435 1.0651100205752999e+00 -4.5940950916578666e-01 -3.1915020935418017e+00
436 -3.6207791824877207e+00 -1.0782594003059396e+00 -1.2579484706827182e+00
437 1.7099962899798682e+00 -1.0880727206133429e+00 2.0096618350309172e+00
438 -1.5967492402370675e+00 -6.8729567328832530e-01 -9.3457160930696359e-01
439 -2.6087158800783969e+00 2.0843888289777790e+00 -2.7128456176937150e+00
440 -1.4007079917197864e+00 -1.9634034192779229e-01 -3.4837144239070001e+00
441 -1.0834595805083116e+00 -2.3717721667228706e+00 -1.2942571052775191e+00
442 -1.6091823726591328e-01 -2.1479222477554876e+00 -5.9094588464729114e-01
443 4.3636108123807782e+00 -8.6022431223161056e-02 3.8187496967548209e+00
444 9.3040435764533791e-01 2.0787704435349790e+00 -2.0795715948246918e+00
445 3.4980130689340844e-01 4.4651778839535311e-01 -2.0427325809472867e+00
446 -2.2094526367683365e+00 -4.0016497896087930e+00 4.0174232804535190e+00
447 -3.2423695869120688e+00 4.4888248614549431e+00 -1.5588041386493161e+00
448 -2.3159607405423874e+00 1.6715838715995861e+00 -1.6948720150046144e+00
449 1.8954632182924775e+00 -1.1097239182844101e+00 1.6019221991998762e+00
450 -2.5997661828384588e+00 2.2323378193379453e+00 1.3103007013102002e+00
451 -3.0664732290413292e+00 8.8125760379917040e+00 1.8009803273599951e+00
452 6.1503455325935183e+00 4.2970275174988064e+00 -5.0705777954786824e-01
453 -1.3746744413344461e+00 -1.3452899001102954e+00 -6.1020272358908647e+00
454 -1.8684514057309192e+00 6.6261433430236327e-01 4.0974901531072030e+00
455 -2.5767221369094537e+00 2.9411199031032202e+00 -4.1766335741384983e+00
456 -1.5743822708143700e+00 -1.2288531980379334e+00 9.9838441402573497e-01
457 1.5248482975162734e+00 3.2088218163148894e+00 2.5702703521880377e+00
458 6.5295352485597447e-01 1.0482051094640987e+00 4.2655110676253400e+00
459 -1.7036266853214679e+00 2.5832456560629247e+00 -6.0290553845860435e+00
460 1.1045117197961103e+00 -1.2976181596122240e+00 6.9041203798916526e-03
461 3.4680522298460801e+00 5.4898652248679070e-01 2.9515596814407266e+00
462 3.9573425715220942e+00 1.0447922975893571e+00 3.1444709565738989e+00
463 -1.0888813617207445e+00 -2.7374941883246101e-02 -1.7426164811053861e+00
464 2.8005958576573846e+00 1.1119150939376419e+00 -1.3620222909252779e+00
465 5.1572607172317586e-01 3.4729942738478967e+00 -1.3093476096659448e-01
466 -2.5480674876453926e+00 3.5420848801627014e-01 -5.3182003320474642e+00
467 2.5633804506395963e+00 -1.4048701111719648e+00 -1.5648645996269506e+00
468 2.3514116728364374e+00 -3.6657254370653409e+00 5.2283351258201050e+00
469 -1.6013138253069428e+00 -1.7447222377999561e+00 3.4051606437041215e+00
470 1.9029833971528125e+00 6.5820242281771106e+00 -5.6712877237927495e-01
471 -4.0148258252066060e-01 -4.9326150666415201e+00 -1.1073582108924878e+00
472 -1.9371820721112365e+00 -1.2050259223283357e+00 -4.6834802886038265e+00
473 5.5371117331659994e+00 -4.7235071989441586e+00 -9.3436344434509131e+00
474 -3.1911486203620170e+00 -1.6214255789684178e+00 -3.0867742166624943e+00
475 3.6621713455008380e+00 -4.5960945350801446e-01 8.4645482416955561e-02
476 1.6390195296971057e+00 7.6799875894229641e-01 2.6276417956951099e+00
477 -3.6994298522362787e+00 -1.8256383823673692e+00 2.2205935872283726e+00
478 -6.8057672225708918e+00 -3.6926353701743677e+00 1.3452607010579183e+00
479 -1.6013371435458053e+00 3.1213468036644039e+00 2.6981219549771343e+00
480 -3.2171102951540149e+00 1.0919526560231669e+00 3.2267903491054870e+00
481 4.9160366059381455e-01 -3.2592482241256153e+00 2.9322282295920647e+00
482 1.7062373209698631e+00 1.4570145326105424e+00 1.9224339138131432e+00
483 -9.9852044547535623e+00 2.9373885940624893e+00 6.0290149853969748e+00
484 1.1724584589520799e+00 5.1751450080824146e-01 1.8700720646580828e+00
485 1.1277753299620321e+00 2.1732923291337252e+00 4.9048871720610739e-03
486 -2.0587503036341586e+00 -2.6968000482629058e+00 -2.6803371746272804e+00
487 -4.5782581042141706e+00 -3.5602673142013836e+00 5.8727465627001356e+00
488 2.0248921959144486e+00 -1.6783190072912242e+00 -1.0482796248429649e+00
489 3.7531060323362181e-01 -2.1858421953752072e+00 2.2512747206221018e-01
490 2.0880169801217163e+00 -9.5976128375323141e-02 9.0226703031517019e-01
491 2.9559077186498688e+00 -9.0739315874920212e-01 9.4960266714817743e-01
492 -8.3073846411333852e-01 -7.6605513955458296e-02 -8.7196334793334596e-01
493 -1.7634578705816384e+00 5.7922290768419404e-01 1.8890825209699356e+00
494 3.9285563518390465e-01 1.3391780041296377e+00 -1.9814890536340142e+00
495 -4.0137214940642689e+00 1.3905853070241680e+00 2.2936642070581890e+00
496 1.3387636995301427e-01 3.6197358812021583e+00 2.4373462159629620e+00
497 8.9380661707619353e+00 -6.6957371857060533e-01 -3.3305505298733693e+00
498 -1.9874099317998370e+00 -1.5184706001131001e+00 1.2782360114108804e+00
499 -7.1958402786300919e+00 4.3965621314602004e+00 -7.9790794316573455e-01
500 -6.6268826788560997e-01 -2.8982444256487581e+00 -3.0671762065844560e-01
501 4.4146536886143478e-02 -4.0661183636816967e-01 1.1305554844256056e+00
502 -1.5832756740953806e+00 -2.4054379698169677e+00 1.4723667112238636e+00
503 3.2899568170083549e-01 6.5747835952327627e-01 3.5312089249344858e+00
504 -2.7457824722721837e+00 -2.2964854606391332e+00 3.3758770699872374e+00
505 -4.9445100916326075e+00 -4.3660895771545780e+00 2.7270695683516815e+00
506 6.3961342457821224e-01 2.8256856969258787e-01 -2.4612317652738833e-01
507 1.0425816773029291e-01 -3.0713763043446590e-01 4.5195733618402514e+00
508 -1.0691044619127801e+00 -4.3331904688547412e-01 4.8184408912403347e+00
509 9.1728050361868971e-02 7.4424111015390926e+00 -3.5004316991862372e-01
510 3.6717727736759223e+00 -4.4449177820159793e+00 4.1256498962305177e-01
511 -5.2832513649231458e+00 2.8157392283098091e+00 -4.0441732159385193e+00
512 7.6197594523085843e-01 -7.5775031732602594e-01 -3.1099987760060666e+00
513 -5.3995762623717400e+00 -1.7040077471354924e+00 5.8039358369375984e+00
514 -7.8806393658554019e-01 2.4629166192920291e+00 -1.5317109370675167e-01
515 2.9233481905204313e+00 -6.0916333711662700e+00 -1.3443866922258856e+00
516 2.5493368130058776e+00 -4.3837100220670333e-01 -2.3214909685116505e-01
517 -1.4353275033478108e+00 3.8324780780267411e+00 9.9202861642631490e-01
518 1.1820829606903513e-01 1.7267253919635615e+00 1.5794973049416756e+00
519 7.0884792866001567e-01 5.1584049479514036e+00 -2.0102209452666286e-01
520 7.4670120914351945e-01 -1.7264515238228662e+00 4.0308831664519612e-01
521 5.2942147048628794e+00 -2.1448711305029242e+00 -3.7798395521421271e+00
522 2.6764917492860447e+00 -3.9946579087015838e-01 2.5778979350672349e-01
523 -1.5042530772177926e-01 2.6382261318043099e-01 2.8360002332245711e+00
524 -2.2532101785458019e+00 -2.7168084179139576e+00 2.2815582409644239e-01
525 -5.3564949768392287e+00 -4.5782947327818819e+00 6.2242479272988938e+00
526 2.0339484552358744e+00 -2.7003565180668380e-02 3.3242872276387354e+00
527 -3.4697627215390821e+00 -1.0523436118974911e+00 2.0788369143927836e+00
528 2.3916251263242505e+00 1.3772805896521654e+00 -6.8237159788105171e+00
529 -3.2279624529285096e+00 1.5907306431124035e+00 -1.1868807755594144e+00
530 6.8210114877880121e+00 2.4879876163076418e+00 1.4985574101658479e+00
531 -3.7243444078975387e+00 -1.1769306350154381e-01 8.0426786714601795e-01
532 3.0283164078329188e+00 2.3660068186095731e+00 2.7737750782252153e+00
533 -3.0806821471290800e+00 4.7086632185128314e+00 -4.6028932422235211e+00
534 -1.4390338864080801e+00 1.1567035210724463e+00 -4.0248781283535745e-01
535 -3.3545183248125827e+00 -2.7393667767094541e+00 -5.1624823251539231e+00
536 1.4284544347162687e+00 3.3848703019492654e+00 -2.6957590575750262e-01
537 -1.3349187216218301e+00 -4.9092975120136071e+00 3.0449705346684701e+00
538 5.9377783257080337e+00 -4.8265152634836106e+00 -2.8555223973933925e+00
539 -2.2660276277967775e+00 -1.8816554822483820e+00 7.5805985618131588e-01
540 4.3345711533440197e+00 2.7082781050369498e+00 1.4167006580899812e+00
541 -2.4138599739201299e+00 -3.7332761690484992e+00 -2.6567588898160888e+00
542 4.1568577250100738e+00 -1.6579266437618650e-01 -1.1998414611034611e+00
543 -6.1271310246735911e-01 2.7495979963096526e+00 -4.3775516337493903e+00
544 3.7992097476594400e+00 4.2016890801390544e-01 -5.8092527831296203e-01
545 1.4766212509413099e+00 7.2822081828514884e-01 -1.1476849098174415e+00
546 -6.7857686007674856e-01 -2.3330633966796364e+00 1.7625356741095268e+00
547 -1.7738743549073930e+00 -3.1885376525233626e+00 5.5305352063282531e-01
548 3.5690005133434370e+00 -1.2981463244536243e-01 -1.6328690759963767e+00
549 1.3467464860222560e+00 6.4577529082302796e+00 -4.8412179593930080e+00
550 1.0262881482315236e+00 5.5069711567485979e-01 3.1189421282627103e+00
551 3.3040767395161783e+00 -6.2256082572369020e-01 -5.6168359611263030e+00
552 2.1657791681255327e+00 -2.2426533422216526e+00 -2.5421804713863785e+00
553 3.8290476496064705e+00 -3.0371295632919071e+00 4.6776301986200099e+00
554 9.0180780527957460e-01 8.5689440882659884e-01 8.2506515567069949e-01
555 -5.4631418651180548e+00 -5.9231708248154389e+00 7.1873775121733474e-01
556 1.5252092331933294e+00 2.2182654319808351e-01 -2.2059785148764735e+00
557 6.3093656775199736e-02 -2.7353378538819295e-01 -3.1915375218406763e+00
558 2.7227106595221446e+00 -4.6461247062779769e+00 1.5808868322731140e+00
559 1.2814837699887840e+00 3.3667721943587292e+00 -3.3521009408312863e+00
560 2.7229773329132506e-01 5.8299963437018878e+00 1.7777970694209471e+00
561 3.3537688520732623e-01 1.7977734710277289e+00 2.8734712318211453e-01
562 5.8829834235409963e+00 2.6412527646895954e+00 -2.2989265292199523e-01
563 8.4137117228019664e-01 -1.3030725751576107e+00 4.0341110639917899e+00
564 -3.7756623137480858e+00 -4.3090322384879798e+00 3.9169302451136909e+00
565 7.1793391492881300e+00 1.5615107757500371e+00 3.7591216146759759e-01
566 1.7648904255356546e+00 -1.7374634268002351e+00 4.5982192298814983e-01
567 1.2973676437582779e-01 2.0892090028813803e+00 -5.1949732971272518e+00
568 -1.3614860790701109e+00 2.2689760524579756e+00 -1.8140996363025044e+00
569 -3.3122533342427731e+00 6.8090631006741935e+00 1.2710024399237874e-01
570 -1.5545067822836378e+00 -4.5443407999754699e+00 1.9584355087542029e+00
571 2.3311919645134198e+00 -9.9618075315570842e-01 -3.6752643250095409e+00
572 -6.5919933959879412e-02 -2.2444346381002616e+00 -2.5297028584954324e+00
573 -3.4415147258950834e-01 -3.5057446763210742e+00 8.2242358585204167e-01
574 1.6325770678780431e+00 -2.2545749454045030e+00 -3.6740017867439860e+00
575 5.2059136637195946e+00 -3.1352268179461529e+00 -2.2005057569842608e+00
576 5.7199214995248515e-01 1.6094222833825891e+00 -6.8826026023905840e-01
577 1.5364675797652254e+00 -1.3370438707784491e+00 -3.2382608708871286e+00
578 3.8299356693097426e+00 6.6819453388937946e+00 4.5540050651644322e+00
579 4.7283851071189126e-01 6.1133868706197632e+00 1.1860539226792288e+00
580 -1.2816056247701402e+00 1.2523190438746041e+00 -2.5346207224968531e-01
581 -3.2780985476502345e+00 -2.9953549823011740e+00 2.6743525685673797e+00
582 -4.9582942581190705e+00 1.6222235850771780e+00 -4.3757460476521954e+00
583 -7.0728275992737899e+00 -6.1314300567259936e+00 6.5579563338009770e+00
584 -5.2692601660240068e-01 2.3249252616619315e-01 3.8109733353238551e+00
585 3.1149187630053126e+00 -4.6398199912264984e+00 2.8976052700392945e+00
586 4.9456219350688846e-01 -9.1747154463439717e-01 6.5225786116761567e-02
587 4.2673912409000820e+00 -2.9541569732540456e+00 1.3367088353895327e+00
588 -2.5931541357463860e-02 -4.8257333649740497e+00 -2.1542043866278697e+00
589 6.4424916425464984e-01 4.3258433099646068e+00 3.3388272213368846e+00
590 1.6036306767841040e+00 -2.1891722805433758e+00 4.8366067184053465e+00
591 7.1769546737167456e-01 -3.3556142176625965e+00 -6.0987637297150421e-01
592 2.4065997585839276e+00 2.0454451126324411e-02 2.3814026114227471e+00
593 3.6801450922434027e+00 1.3355251455830937e+00 -2.8599142701373061e+00
594 3.6372187722676486e-01 1.2127902813936044e-01 4.9927032634875106e+00
595 -5.4227901289442739e+00 -4.4955051023383774e-01 -1.9475951509158103e+00
596 8.9982317608349238e-01 -6.5453301031472124e+00 2.9937873248059925e+00
597 4.5842806197813127e-02 -6.1509514372912202e+00 -1.2040916973155791e+00
598 1.6351812543827859e+00 -4.2733442698705009e+00 8.6522721767930341e-03
599 -3.5260285958999540e+00 -1.8538704253985570e+00 8.9156171517742203e-02
600 4.9259928775455086e-01 -1.2640343351583001e+00 7.3251088271113018e-01
601 2.7274556108159254e+00 -9.3000871640000315e-01 4.7734039143469476e+00
602 3.9263268652324355e+00 -1.1511476710637396e+00 -1.7127248269522630e+00
603 -5.5490002482987908e+00 -4.2203139875140794e-01 -1.2118429694998047e+00
604 2.0919026748097442e+00 -4.0537323736592530e+00 -7.4484934926043833e-01
605 3.2301707369531889e+00 -2.4352947324122209e+00 -2.5420099919315402e+00
606 -3.8853136717365895e+00 7.0367458471937008e+00 -2.0071095457325372e+00
607 -4.3358622926652091e+00 -2.6803500184931699e+00 -2.5818010700665126e+00
608 -7.2336347539812962e-01 2.2162835194877357e+00 -8.0105520542483766e-01
609 -3.0770519950135991e+00 -4.8393272566093382e+00 7.2880936819864892e-02
610 1.1422561244645495e-01 4.1108484234493092e+00 2.4823998745086678e-01
611 -3.3013223312486956e-01 -3.5032886917809827e+00 -1.0201649289596577e+00
612 -1.1773884282496379e+00 -9.9396212450927179e-01 -2.5757856092542424e+00
613 1.7950003568576214e+00 -4.7496844629381385e-01 -6.6805645819577386e-01
614 -4.6025441745640938e+00 1.3255295164302474e+00 1.3077300141032813e+00
615 -2.7979839272906530e+00 3.3014499417817280e+00 -4.5506349550789276e+00
616 -5.8724920148268835e-02 -7.2824397816541397e-01 -3.5368681707788459e+00
617 6.3254232037044755e-01 5.6770313433446571e+00 2.2551883895492997e-01
618 -1.2433026492795618e+00 1.2003460174724909e+00 2.8387856354407870e-01
619 9.2569748852057487e-02 -1.4189233122869103e+00 4.7414197934482152e+00
620 1.2254235871521462e+00 -1.4195826114382906e+00 -2.9001111764285786e-01
621 -2.4703378568389636e+00 -2.0282793753578008e+00 -2.1364288654570478e+00
622 -3.0458452482369007e+00 2.0871384545121576e+00 -7.8150242213528842e-01
623 1.8476769525359273e+00 -2.2344604833907393e+00 -2.0127204284449757e-01
624 -1.9092810432563401e+00 1.9324477415817156e+00 -6.6705371706104166e-01
625 -2.4370169123459839e+00 -5.4740773378127958e+00 9.1917953504508099e-01
626 -1.9021503945894049e+00 -4.2370239143170375e-02 -1.3203901125556063e+00
627 3.1816393298817203e+00 1.8143903265221955e+00 1.4911791060478523e+00
628 -1.6544039628962381e+00 1.2520786363357184e+00 4.6046533736579365e+00
629 -2.7748320344644801e+00 5.7464574590415995e-01 -5.4991310892031082e+00
630 3.7554087661983035e+00 -1.0684706754444753e+00 2.1013751237094316e+00
631 -5.7459134815516490e+00 5.9936957241812863e+00 -1.1899485301566033e+00
632 1.4651950796015929e+00 4.0497595162395428e-01 -6.8598829852382825e-01
633 5.6210874647160489e+00 -5.4952272929852004e+00 9.9602756939380610e-01
634 2.4452591412623601e+00 -8.0169440848700327e-02 -3.1731133141494761e-01
635 -4.7577635064529217e-01 -4.0934174886859944e+00 1.2713153361797291e-01
636 1.3767453680268205e+00 1.8420214710937563e-01 -7.3111380812025517e-01
637 -1.6329337724916293e+00 -9.3128376736626195e-01 4.1938085988608842e+00
638 -5.6030170828257679e+00 1.0759958391632336e-01 -8.8008512207628276e-01
639 4.8542301540914359e+00 1.8503267118926733e-01 4.9513197181652950e+00
640 -5.7030540418032638e+00 1.2340740465824862e+00 7.5200933054736152e-01
641 4.6365812913317468e+00 -5.4728948967972908e+00 -5.1694970739949264e-01
642 1.7738453487847072e-01 -1.3313064589266557e+00 3.2667456358753042e+00
643 -1.1292981846735295e+00 6.7846900308113254e+00 3.5150393201876642e+00
644 2.5531717333321633e+00 1.5018255603145405e+00 -2.8562276709737024e+00
645 -1.4374429252311327e+00 1.9097759098563953e+00 2.2592387817420367e+00
646 3.5100405612955252e+00 -1.2551692020779766e+00 -2.3096776183257779e+00
647 2.8645876489849540e+00 -2.6996100234299147e+00 2.9119614597716228e+00
648 3.2215228622325989e+00 1.2248588168648353e+00 -9.6016861805735298e-01
649 1.3698412671342078e-01 1.9788462885704232e+00 3.3962482485980244e-02
650 5.9028493532225550e+00 -2.6601423835539539e+00 -2.6923584042503816e+00
651 -3.2573493211794791e+00 -1.9658888623701005e+00 -7.2654054923144269e+00
652 -1.6907327506481664e+00 -1.7541953340910559e+00 2.1082528982356388e-01
653 1.3931097071128258e+00 -4.1353638233610344e+00 3.0011310489345009e+00
654 4.8393677382474660e+00 -5.5928564518911361e-01 4.2274902056586923e+00
655 6.6350839949068163e-01 6.6312060155114381e+00 3.7254578002327254e+00
656 -4.1993853603235243e+00 5.0018080331752847e-02 2.8310657606621157e+00
657 1.0185418660797259e-01 -1.2298404291004394e-01 4.2338897323655109e+00
658 -1.9060952912734339e+00 4.7032797485873981e-02 8.6899755128757117e-01
659 -1.1129889370826858e+00 -6.7118264393250152e-02 2.5842291146426879e+00
660 1.1622524357507014e+00 -2.1715624397901876e+00 -2.9647857028203877e+00
661 -2.6311737020175450e+00 4.1628373624935889e-03 -5.3330148361233365e-01
662 -2.2339662148168058e+00 -1.6061492482410740e+00 -4.0815984422261122e+00
663 1.3932868298988663e+00 -1.3343800127282943e-01 -4.2006211756054235e+00
664 7.6851569855196131e-02 3.6051988655708471e+00 -1.9868703751486576e+00
665 4.3851806865522862e+00 -1.0785330678501517e+00 6.5963608489281977e-01
666 2.6247974429314247e-01 3.7633604915596801e+00 4.2542541402409084e-01
667 -3.8075436358932198e+00 -4.3712853026299143e+00 -5.1113552388646974e+00
668 -4.5969698434614115e+00 1.2388152503686133e-01 -2.5734201896418307e+00
669 -2.6945736067543946e-01 -2.3469398916413349e+00 -2.5700947642642205e+00
670 -1.2911624149304994e+00 1.8892628182582731e+00 2.4949337985402491e+00
671 1.2376337106599244e+00 -3.3004535118446587e+00 2.1461171038939884e+00
672 1.8498203228519943e+00 7.3748067523443528e-01 -1.6208372081910127e+00
673 2.3636136355911743e+00 1.4098416431341463e+00 -1.0392812619157054e+01
674 1.7304779167780513e+00 -5.1387679123194472e+00 1.7817907232537533e+00
675 -5.1373732462676147e-01 3.9799657679146088e+00 -3.2730767186479037e-01
676 -2.3807301679332808e+00 -3.9567298929491113e-01 2.8457841613722175e+00
677 8.7516436289469604e-02 -3.8123790986653294e-01 2.4792967311431311e+00
678 5.6485544255879394e-01 -1.5916227067976064e-02 3.6681345682969102e+00
679 5.1853552647154837e+00 2.0450682786719354e+00 -9.5349907535969880e-01
680 4.0194945215075482e+00 3.1769040374257007e+00 1.9303774445344597e+00
681 -4.0548724854077074e+00 4.6905485988681289e-01 -2.4796923870603433e+00
682 -4.2697854230598570e-01 6.4459912201497271e-01 2.6894731473030531e-01
683 -1.5844186894841437e+00 4.2445230945292236e+00 -5.6555615940705648e+00
684 1.9606835114272854e+00 -4.9877005822539457e+00 1.0273497363272310e+00
685 -2.9572841108672816e+00 2.9286064689079883e+00 2.8826635299352066e-01
686 6.6513936733675461e-01 -2.7342762450113658e+00 -1.7576469696283501e+00
687 6.9094341618241795e-01 1.9458491984810620e+00 9.7667465568284957e+00
688 5.9841754964996230e-01 2.6208488700978982e+00 -4.1806676810828733e+00
689 -4.4343769154601320e+00 -1.1853578985806259e+00 -3.9926898463351601e+00
690 3.9912684735038764e+00 -1.1015162527280737e+00 3.7114247621736633e+00
691 4.9575112631957836e+00 1.4264423132211926e-01 1.6731956252713835e+00
692 -1.5063789813103581e-01 1.4458071204431395e+00 1.2978660278776895e+00
693 -4.1229596375668742e-01 1.6837663977828241e+00 5.7474740588426618e+00
694 1.9145859984154137e+00 8.7483475490926055e-01 3.3503021118492132e-01
695 -3.3766462172658782e+00 -3.4254075007707816e+00 1.0781964912703010e+00
696 -3.6770790947043901e+00 -2.0577372997102645e+00 3.4411049381953509e+00
697 6.3827866207321131e+00 -5.5549457695843634e+00 5.4238825564190316e+00
698 -5.6775256202219193e-01 -4.0291550652223632e-02 -3.0453208642118523e-01
699 3.6029545501626523e+00 -5.3606192480068096e+00 1.5210269696943517e+00
700 -2.5371585875015645e+00 1.5326772110827342e+00 4.1427055158336961e+00
701 -1.3915286378835873e-03 1.2475786372333910e+00 1.3656049818073648e+00
702 -2.1470626545397642e+00 4.0590429969814439e+00 4.5821961363641357e+00
703 2.3400188206639512e+00 2.4436214506060036e-01 -1.5401336994018513e+00
704 -1.6822469943940344e+00 4.5939259585278069e+00 3.7979769939528301e+00
705 -2.1227217377585689e-01 -5.2681031236452176e+00 -9.4430294863492872e+00
706 -2.9092093947046700e+00 -3.5074093808652634e-01 3.7611200162523284e+00
707 -2.1728753549655777e+00 1.6832511509005177e+00 4.3453123829211373e+00
708 3.4514478392763276e-01 -3.8249998208006852e-01 -3.5142822774371316e+00
709 -4.0095205506134848e+00 1.3874380820211933e+00 -6.6990388712848847e-01
710 3.2902020370771906e-01 -1.2694977861274745e-01 1.7833547748955003e+00
711 -2.6164531449981094e+00 -1.1189564373209198e+00 6.3226093388689515e+00
712 -2.1475799266180986e+00 -7.5608430053018461e-01 -1.5826168889842551e+00
713 1.4830741229644813e+00 3.4090538073019654e+00 -1.6612313863294759e+00
714 -1.1584306535764273e+00 -7.4911937915519722e-01 1.4227058249990585e+00
715 -2.4654316310815152e+00 -1.2535968094185876e+00 -7.9098173683694233e+00
716 -3.7102516581312117e+00 -3.0193315651601033e-01 2.4109383529606885e+00
717 9.8389747304154018e-01 -3.6637215561223102e+00 -4.6689990258482705e+00
718 4.6904971602164258e-01 -4.4380963289856386e+00 2.8622189473557986e+00
719 2.1305476443410853e-01 -5.3594308056832460e+00 -3.2208660099259374e+00
720 -1.9449154907117703e+00 -2.0761709095368071e+00 -4.0007572860919236e+00
721 -2.9164651721642438e+00 -2.2820610830791042e+00 -2.3717034645287196e+00
722 3.0287809322276766e+00 2.8148285435101922e-01 -2.6670870621022837e+00
723 -1.1157586327121840e+00 -2.9327855907278071e+00 -1.0003389312207229e+00
724 2.3509108155484597e+00 6.7739566680706742e-01 6.1372796828052829e+00
725 1.2534883077180681e+00 -3.0462795682271979e+00 2.6999906598642123e+00
726 2.8998234562361138e+00 2.9380492539365788e+00 -2.9382478550636377e+00
727 -4.9228058447254558e-01 3.7739014426084445e+00 -5.6175418627975002e+00
728 -1.3410302573539070e+00 -3.8316027031213409e+00 -2.5041308041805932e+00
729 -3.3759260858367299e+00 4.1698864079358753e+00 -7.8204106516860195e-01
730 -2.3182761328741464e+00 -2.7808009839991050e+00 3.8040364159480666e-01
731 -3.7130514333012364e-02 4.4816669332305938e+00 1.6672502162920642e+00
732 -3.8446529885539422e+00 -1.6889344251194245e+00 2.8733509330227713e+00
733 -2.0709313722064127e+00 5.7837385386848661e+00 -3.6621242992454950e+00
734 1.5375772143111730e+00 -2.3125297453931535e+00 -1.3683611476772117e+00
735 3.6630986641105805e+00 -4.2369136167124294e-01 2.7123662926583711e+00
736 1.2708764659858289e+00 2.0242746550374981e+00 -2.3849565297992710e+00
737 -7.3881525635262213e-01 1.4146233018847305e+00 -2.8311393246961218e+00
738 4.3755216742467784e+00 -2.0870070905529321e+00 -8.0556742461879627e-01
739 -3.3562595657163015e+00 -7.1466230327027587e+00 5.9916255201951385e+00
740 -5.4868942840792045e-01 -1.2027376690437495e+00 -5.3358823950389855e-01
741 4.7343789404692220e+00 -3.2180409461757380e+00 2.2659436786193123e+00
742 -1.1379531252672299e+00 -1.6021762451877468e+00 1.5226605913553428e+00
743 3.2951785889791934e+00 -1.7135523915622179e+00 -2.5636422511171979e+00
744 -3.1392474047010062e+00 2.9631202950784772e+00 -1.5446732167749258e+00
745 -6.1657213259977439e+00 4.7013290299676322e+00 -4.5676445803573191e+00
746 2.0930017540709374e+00 4.9254126902596052e-01 7.7310842625639897e-01
747 -1.9485345434077006e+00 1.2190241769606982e+00 -5.5610270820483647e+00
748 1.5789946895506075e+00 4.1808720484780668e+00 2.3737834061603813e+00
749 -6.7339324307931117e+00 -3.2817357610480631e+00 -6.2618133929352338e-01
750 1.3075205125724652e+00 -2.8638298425018727e-01 -1.3243756880002941e+00
751 1.9849628522043525e+00 3.8817349502850949e+00 -7.7455860361057283e-01
752 1.9573171826514668e+00 -6.9252483186034004e+00 -2.5173933905466450e+00
753 -1.0712022953101206e+00 -1.6290698770158871e+00 1.1096787458223973e+00
754 2.7221156030529494e+00 1.3605039866455744e+00 -1.6707953149434192e+00
755 -5.0775013100368636e+00 1.8571350880792927e+00 -6.1291964692164793e+00
756 1.7535309676752606e+00 -5.0602210584566487e-01 -3.1573435646284782e+00
757 9.5782764917597241e-01 -9.5900453325383703e-03 -1.2202961428257984e-01
758 -2.2615578377102474e-01 1.1265030871962480e+00 2.4822835177512630e+00
759 1.6559083005548714e+00 3.3748458674052042e+00 -1.4717899703308693e-01
760 4.3458752158217200e+00 1.5335399440354454e+00 -1.4599232573916412e+00
761 -3.6474717445469889e+00 6.8620661746019029e-01 -4.3564511139935975e+00
762 -2.6137020744026112e+00 6.4199489073466154e-01 -1.6322949531397992e+00
763 -3.1120394904399600e+00 -1.1495321761008635e-01 2.4233639397318701e-01
764 -5.5270402868816348e-01 -1.0137862433634066e+00 2.2948804443115698e+00
765 1.1417860248014835e+00 -7.4498959128398790e-01 8.2170081733417089e+00
766 5.2047557139355638e-01 3.0396519584857598e+00 -1.5063421128696062e+00
767 -4.5445754268860732e+00 -2.6400242889768260e+00 -8.9364889820881654e-01
768 -1.3334887558334259e+00 3.5884544650383847e+00 -3.2233354869419739e-01
769 1.5387167910596480e+00 -1.5498625964173346e-01 -1.4456388376879801e+00
770 1.0202661920219622e-01 4.6025585503387907e+00 -2.0620899777249297e+00
771 2.5574445917187933e+00 -3.4211073877390978e+00 -1.5325733953211200e+00
772 9.6215985895101268e-03 8.7638001911429009e-01 3.9824862136993913e+00
773 -1.6699501337862194e-01 -2.8129426759497331e+00 2.1674928640325075e+00
774 -9.7786612441961851e-01 6.4090601972853989e-01 -3.1207965003948385e-01
775 -6.4802413249556032e+00 1.6948672597214332e+00 1.9451759183422392e+00
776 2.4881123900753761e+00 4.8345895255037687e+00 -3.2090839674914866e+00
777 1.7222367879511433e+00 1.3647487720522811e+00 -1.3973824253107612e+00
778 1.0663067802796244e+00 1.3416483728513231e+00 -3.2724009638820415e+00
779 8.2100248930750863e-01 -3.0609168562157385e+00 -2.1735432026670245e+00
780 -4.7655318803866162e+00 -1.2710653171687616e+00 -5.4662648765954769e-01
781 1.8334367402627914e+00 3.0007056753932749e-03 -5.1425887861538246e+00
782 2.3150336969761023e+00 -3.1842793976851247e-01 1.3113691603535562e+00
783 3.2208068565891539e+00 4.7435177566423272e+00 6.5394938795200241e+00
784 -1.9397498981440628e-01 8.3542910165895001e-01 -2.8956073644365565e+00
785 3.5397880266224151e+00 -3.9508757699719168e+00 -6.0194115381891935e+00
786 2.2297464669904592e+00 -1.4008557175367518e+00 2.0880254208621567e+00
787 1.3606796593445623e+00 -5.4350630588773097e+00 -9.0684692050882845e+00
788 -2.9445870421109070e+00 4.4282820994711189e-02 -3.2807049350759416e+00
789 -2.1765606561352753e+00 -4.8646760574168297e+00 5.6643921605271019e-01
790 2.4388511923122175e-01 -1.2926319757345568e+00 3.7513895943878977e+00
791 4.9939646494425114e+00 1.8848207939853814e+00 -6.0011373948861104e+00
792 -2.9663059553143265e+00 1.0932234063426975e+00 -1.6877982466430579e+00
793 -1.6241523565191336e+00 2.9975070742321628e+00 1.7034554332989342e+00
794 3.5287579355041503e+00 -1.1525096842216627e+00 3.6927453049981955e+00
795 -1.8476891856016355e+00 4.9998880676885111e+00 3.5289388119076892e-01
796 -2.3106345194750495e+00 -4.3801387676149703e+00 -8.0951126901849058e-01
797 -8.5437951311112315e-01 2.8597785174061592e+00 -3.6875176619992633e-01
798 -1.1611632063256299e+00 2.8920531953530104e+00 -6.0370264847158506e-01
799 -1.9214144261595159e+00 1.9159697057651746e+00 -1.6332778696896291e+00
800 1.7690107232482111e+00 -1.6028374906669269e+00 -5.9868837783157758e-01
801 5.0741724739650773e-01 -1.2474827211754360e+00 -4.4852432691476249e-02
802 2.1896994056365635e+00 1.1025449461428880e+00 1.2914967460271902e+00
803 -2.1187723230123456e+00 2.8436662763387699e+00 2.2325813643498265e+00
804 2.6970591157840045e+00 -1.9504322539680023e+00 -4.6308457052450114e-01
805 2.1124485335323664e+00 -2.0300264863261090e+00 -7.5398029655002319e-01
806 5.1711595710841927e+00 5.2408544863782192e+00 3.3294793535476752e+00
807 3.1296080398633923e+00 -3.3985799145261555e+00 1.7090819132412072e+00
808 -9.6429727131246890e-01 -2.8424695666365452e+00 -1.3667787787575627e+00
809 3.8567236118100218e-01 -1.8250964561762459e+00 -1.8365795967448038e+00
810 2.1267840756715501e+00 3.8695368660774038e-01 6.2687993893158878e-01
811 3.7302609986386326e-01 -2.2530571904285335e+00 -4.5700200525222403e+00
812 8.3392610349703000e-01 -1.3614910798659345e+00 -5.3993379349264581e+00
813 -1.3089719826842938e+00 -3.6418795892725839e+00 2.3295717201301818e+00
814 1.4006642694507707e+00 1.3342538615173156e+00 -1.7857649201145913e+00
815 2.4392776145150097e+00 1.0658367500194170e+00 -1.3666145021227163e+00
816 -1.2172983783018199e+00 2.3970934446417616e+00 -1.2717181720014448e+00
817 1.0125088329243617e+00 3.4476148980278656e+00 6.3664912228135453e+00
818 4.4678200221047746e+00 2.4188827400291939e+00 -4.0436622175378529e+00
819 -2.2975555666458689e+00 -1.8275359391624770e+00 5.5122447685112981e+00
820 -1.8778034530415448e+00 1.0369311494509488e+00 2.7084750524125206e-01
821 -3.1180779664211080e+00 1.2731498125916501e+00 1.3280741250499462e+00
822 -3.3719975865328737e+00 3.2836616339793943e+00 -5.6026815664757121e+00
823 -1.9698142064566293e+00 3.2409271452393948e+00 -3.9787859034202211e+00
824 9.4053150176880884e-01 -3.4809774937363303e+00 -2.4978775664010780e-01
825 -7.7150198290339222e+00 -2.8094618910955091e+00 -5.1447004426104019e+00
826 -1.0788130806759100e+00 -1.1149763265065240e+00 -1.8089181371726859e+00
827 2.6605530586879698e+00 -2.9572016767249303e+00 2.1152920029476285e+00
828 4.3749194572826946e+00 3.7341404579643545e-01 -2.3030098004976085e+00
829 -4.1657807156890598e+00 -2.3666996952294594e+00 2.3495530015544910e+00
830 4.1779111083541864e-01 2.5154757068426843e+00 2.0684868790501940e+00
831 4.6951750160601502e-01 1.5787940947084942e+00 6.1861127229520916e+00
832 3.8013098107212255e+00 -8.1293140448697376e-01 2.6574800453254945e+00
833 1.9534545362332985e+00 3.7891600095900735e+00 2.2394309715445306e+00
834 -2.6158273171449449e+00 -4.3491652244287717e+00 1.5376139052258397e+00
835 6.3440693661529268e+00 -2.5863659402724721e+00 -6.2716437079751375e-01
836 -2.7811822674329458e+00 3.1626992265579075e+00 -6.1898172871420627e+00
837 -7.5479242148961756e+00 1.2504623297867254e+00 -2.7456575762489926e-01
838 -1.2878802345780720e+00 -8.0849753266810209e-01 1.4419160455200963e+00
839 -1.3797835071540585e+00 -3.6575746600672039e+00 -3.0921888313348287e+00
840 2.3853610565315679e+00 -1.4090332840797986e+00 -3.7197373008951691e+00
841 3.4070229876146735e-01 1.6838488916265211e+00 4.4312722198262477e+00
842 5.8511259155990747e-01 -1.7714518467789493e+00 1.2728024805203553e+00
843 2.4246839542928433e+00 -1.2972543014574137e-01 -1.4871172859681431e-01
844 6.9850698591363680e-01 -1.8757816145902162e-01 6.7160404514430783e-01
845 -3.4074566415453731e+00 -3.8360071502649551e+00 -2.7879206631826996e+00
846 1.7244601579772592e+00 6.9492134709917508e-01 2.7932421072179214e+00
847 -6.2250017420253800e-01 -3.8133453950146428e+00 3.8163868228224413e+00
848 -5.0393161152489027e-02 3.4463241363073021e+00 1.6056015733123081e+00
849 7.2977062483721360e+00 -7.3280864619433839e-01 3.0033639636864069e+00
850 2.3934844206916308e+00 -1.4906212287286560e+00 -4.6314826443868390e-01
851 -4.8740043830831246e+00 -5.1642889443574473e+00 4.2202963116302505e-01
852 2.1293768233259418e+00 1.7132174981180324e+00 9.1303158023300524e-01
853 2.8776349813438022e+00 -1.9662818973293563e+00 -9.0873022366549372e-01
854 1.9803874081306942e+00 1.1630072647723364e+00 -5.6439747533092155e-01
855 4.4040423933715109e+00 -4.3080348778447304e+00 -1.7294765569483734e+00
856 -7.6097764447241290e-01 2.1925535252773396e+00 6.4047161083699853e-03
857 -4.2063043196612293e+00 1.7138899302232991e+00 3.6263025709191146e+00
858 1.9851751597230483e+00 1.6625502959959872e+00 -5.0328929805094376e+00
859 -3.0005716517455081e+00 1.6074443228358024e+00 -1.8301856450359263e-01
860 1.4031678753765013e+00 -3.4003741534636394e+00 -1.6512529416536667e-01
861 -4.6340706691413676e+00 -6.5143244877206099e+00 9.8624256624525120e-01
862 2.2625133130170640e+00 6.5952744726749546e-01 -8.8601909015916386e-02
863 -5.2083635823419989e+00 3.3547524295270219e+00 -1.4686282535164946e-01
864 5.2618016559241347e+00 2.5302955326346490e+00 -5.3841482240751937e+00
865 2.5176294174727767e+00 -4.6565918622201758e+00 -2.5324534784176067e+00
866 -6.7333000614697980e-01 -2.5257580814660552e-01 1.0675392278052227e+00
867 -3.4105966903611900e+00 -3.8368548668021929e+00 2.0026514330261143e+00
868 -3.5579523164605761e-02 4.6822524317615638e-01 -5.8904625941183744e+00
869 -5.9064495864387501e-01 -2.9700376715835692e+00 -3.0697265356407137e+00
870 2.4755726364543289e+00 -2.9420884216167535e+00 -2.9346380250500510e+00
871 -1.1037181451917462e+00 1.5014381649866679e+00 -2.9476490716991766e+00
872 3.3139145961520753e+00 3.8931200388232123e+00 -2.3668552572625590e+00
873 -8.1719793234936955e-01 -2.5964070019378540e+00 -5.6197197056860828e+00
874 8.1364307065450525e-01 1.9698436090168088e+00 5.4022432988040725e+00
875 -2.9923124596201403e+00 4.4555277106390481e+00 4.4759295052199146e+00
876 5.3127426901768149e-01 1.6169250261900630e+00 2.3449064430804034e+00
877 6.5824173331759175e+00 1.5931996590686932e+00 -2.0052310941629178e-01
878 -2.3258301645059483e+00 8.1984507254419414e-01 2.7500802347098436e+00
879 8.1562612051304351e-01 -2.6005675735126155e+00 2.9701471792704731e-01
880 -3.4680199252262767e-01 7.1087458842620488e-01 -4.4623831587332656e+00
881 1.8365435466500006e+00 1.9853724788080445e+00 1.4833144516566106e+00
882 -1.0103889252817026e-02 -4.8492869283114617e+00 -5.1885420579378408e-02
883 3.5368365231191530e+00 -2.8680043424928221e+00 -6.6329984082513729e+00
884 -4.1366950705829506e+00 8.4321950560113268e-01 1.0012439492202312e+00
885 2.9552463601186094e+00 -1.8425499257456407e-01 -5.0026785707036918e+00
886 -2.1978413701200119e+00 2.1987415326654580e+00 3.7725858964997161e-01
887 2.1667848452852101e+00 1.4497550500856935e+00 -6.8341822790093143e-01
888 -4.6724189554070794e-01 4.9866775188855295e+00 1.1134803271940386e+00
889 -4.2876092509239327e-01 1.5185474498831903e+00 7.4325473341272208e-01
890 -5.7929176562492319e+00 1.7456022137231082e+00 4.8895729057250374e+00
891 -2.6017566815667723e+00 4.8483209397478557e+00 -8.5650351675004155e-01
892 7.8802726426513592e-01 2.8741229390968059e+00 -1.9333426109350937e+00
893 4.1429581493001955e+00 -4.0486728578152436e+00 -2.9181064482538011e+00
894 -1.5937164429333248e+00 1.7776119990964550e+00 -9.1531349007160534e-01
895 -5.0681862575768246e+00 -7.2200484587217961e-01 -2.6148992233340396e+00
896 1.9636643162514005e+00 -9.2165227387812454e-01 1.9004203428175942e-01
897 -1.3520029380402656e+00 1.4469213620938295e+00 -6.1216303903752201e-01
898 8.7322122540599045e-01 -6.9637481274698070e+00 2.6113734812288109e-01
899 1.3801492264859732e+00 -6.6447724128369345e-01 2.2320149546206292e+00
900 1.9833022266746436e+00 3.5020656644607486e+00 2.8143936831276328e-01
901 -6.3813561931770657e+00 -7.6207444309367425e+00 -5.3411609970997755e+00
902 -1.0178776521489082e-01 -4.2239501692797349e-01 7.4175724316429881e-01
903 -2.0848131837515216e+00 -2.4557481283396654e+00 1.8507458044968124e+00
904 1.7612834627085345e+00 -6.8915507867409465e-01 -1.0331724308713165e-01
905 1.3481413359797503e+00 1.6816777154496987e+00 -3.8144767657603627e+00
906 -1.9321944886511535e+00 -3.3042532991896225e+00 -1.3611419583874069e+00
907 2.7086362590540221e+00 1.8214829541935611e+00 -3.6614858605578147e+00
908 1.3755348921478741e+00 2.3050528262980544e-01 -1.3262884044217551e+00
909 -4.6896837317744229e+00 -5.8292914328167234e-01 2.2671978769021797e+00
910 -5.8083340858924064e+00 -1.0636671319107720e+00 6.0531862057864219e+00
911 2.2428325370132947e+00 8.6638263698675111e-01 -2.4580621879177569e+00
912 -1.8214463511264134e+00 -2.2364539486328366e-01 4.3039977693339475e+00
913 1.5524555192940028e+00 -2.9081154476876203e+00 3.9238656105277405e+00
914 -7.8567183873142354e-01 4.5577024359269371e+00 -1.5214383241612359e+00
915 -3.3452783958113925e+00 5.8228295933493524e-01 3.2754603791829737e+00
916 2.7857392289025138e+00 4.2746057498674722e-01 -2.6532300458746865e+00
917 -1.6850025906452573e+00 -6.7297370456450416e+00 -3.0447024941883716e+00
918 -4.7919094248756056e-01 1.0445457211411773e+00 -9.1150027712770465e-01
919 -1.8999033936831786e-01 -1.3210364252305056e+00 2.5042105818173561e+00
920 -2.4142915282636301e+00 2.2489775724694043e+00 5.2653429077239737e+00
921 1.5764646716680291e+00 -1.7575285154129352e+00 -1.7881333186018873e+00
922 3.2486461169257432e+00 -3.0251097392437072e+00 -2.5611486978647218e+00
923 -3.8827242223338603e+00 -4.2630626033112300e+00 -3.4838241380817370e+00
924 2.1210470093152889e+00 2.9598411319658799e+00 -1.8717755481586733e+00
925 6.9133238145519149e-01 2.5313237363077596e+00 3.3532018181415557e-01
926 -2.5642053530301614e+00 -3.9483120535452727e+00 2.7131927227119745e+00
927 1.6544552198184161e+00 1.9237954372915727e+00 -3.6933257437257758e+00
928 6.3095905072837277e-01 1.6889851211972051e+00 8.4324139482652372e-01
929 -2.4841972871236235e+00 3.3752704026346927e+00 -5.0937193040101780e+00
930 2.4938510671736460e+00 2.9028435648540141e+00 4.2220099422665696e+00
931 -1.1420022231344740e+00 -3.3324885450555319e+00 2.6471060201285841e+00
932 -1.8775277860936903e+00 1.1813642760689307e-01 -8.5244723846888815e-01
933 -3.0078589413316075e+00 1.0703371184612045e+00 -4.6415226875258471e+00
934 1.5901863926959936e+00 -2.5963963318792338e+00 -4.6500324267635706e+00
935 -1.6707776399891053e-01 1.4392352103855830e+00 1.9237244269896812e+00
936 2.1974374909080199e+00 -6.3199780969628021e+00 -2.6990065214575174e+00
937 3.5562024738664189e-01 5.0649479667467912e+00 2.6133090903224896e+00
938 5.1054644898765211e+00 -1.4095635235888830e+00 7.3686252149850995e-01
939 -3.6677306618542582e+00 -1.3482676302846577e+00 -2.4517620221541092e+00
940 -1.7023817406990143e+00 -1.0564867209492703e+00 7.2971183656539047e-03
941 7.4065666259472529e-02 1.8120852207453988e+00 4.6677601860667384e-01
942 -9.2382882235171970e-01 -1.4032241020587035e+00 -8.2470786299415588e-01
943 -1.4972645461708332e+00 1.6370885306975966e+00 2.8859977542924224e+00
944 3.4210551346075553e+00 -2.1419856539568842e+00 1.2603548884756473e+00
945 -4.6504045832244127e+00 1.2443097098079716e+00 3.6100506471985789e+00
946 -4.0167664278508408e-01 2.8802345190796848e+00 -3.0572741712140421e+00
947 -2.9630891382560538e+00 -4.5284285784508505e-01 3.4084470556670770e+00
948 -1.1208785426420553e+00 -1.2178774905164158e+00 -2.6627132615928115e+00
949 6.7648434148497572e-01 4.1569666783680788e+00 2.3363401124737551e+00
950 1.8706412743506282e+00 -5.5576635594799917e-01 -1.5125941978351356e+00
951 2.2582013960396838e+00 -1.0640394249618686e-01 -5.7887740739726667e-01
952 2.4119491916181386e+00 -5.3109742787817638e-01 -2.2495907234454209e+00
953 3.0315882010536090e+00 2.6915152213905907e-01 -3.4578593318139457e+00
954 -2.9883668212419185e+00 2.5619927559675160e-01 6.2763954366669727e+00
955 -1.3098167354261760e+00 -1.1212678875302993e+00 5.0808460594517300e+00
956 -1.5381106140573780e-01 -3.8894126949502610e+00 -4.2232616046158595e+00
957 4.0901749732743262e+00 2.2218853168272692e+00 2.7546245504958478e+00
958 -1.5508749083225754e-01 -1.9513618510350426e+00 -5.8312482018300715e-01
959 4.5358100733225781e-01 -2.7952555729410795e+00 1.8720924538956170e+00
960 -3.3822584787716936e+00 -8.9352141642556682e-01 -5.4780045661566246e-01
961 -2.3041289271419214e+00 -7.3540129972770005e+00 1.4933717224779235e+00
962 -2.0293364497710544e+00 3.5597813782433976e+00 -9.1828832679662975e-01
963 -1.8051035063063552e+00 3.0516978098287451e-01 3.5125780065072227e+00
964 -1.5128581626301918e+00 2.7247662838937776e+00 3.8674928699407416e+00
965 3.3021215770288888e+00 5.4231554218240259e+00 4.3101847917837670e+00
966 4.0677509266665721e+00 4.3079253739957366e+00 5.5870678888741543e-01
967 -1.4311994885940755e+00 -7.5432004999328583e+00 -4.4105068848516185e+00
968 -1.2037257145575084e+00 -1.0250322821276765e+00 -4.1028258274517626e-01
969 -3.3369248620049112e+00 -5.3209434602336749e+00 -4.3421470574224197e-01
970 -5.0862364591466003e-01 -2.1684382437437173e+00 -1.9928215911236813e+00
971 -3.1348478843494756e+00 -1.3221644299424817e+00 -2.8552468054522229e+00
972 3.3830080844714510e+00 6.4712267352528396e-01 -2.6108610074930518e+00
973 -9.3512202329276206e-01 -3.9355314508078405e+00 3.3749629223095652e+00
974 3.7168081337353569e+00 3.3618666255873011e+00 -3.0737203347459179e+00
975 -3.0431975499919017e-01 -1.3389928799428132e+00 1.8739703697050247e+00
976 -2.7064320791341769e+00 -1.8148994649171459e+00 -1.1095673616152200e+00
977 5.1112339934554729e-01 2.3144951925919179e+00 -1.0961060327727778e+00
978 1.7828741956612948e+00 2.2074334591096751e+00 -5.7252400457856267e-01
979 -4.1535088901088022e+00 -3.9052042786767429e+00 1.9730479711598470e+00
980 -1.2787543955920593e+00 -4.5987398113123241e+00 1.6458952446208817e+00
981 4.3198518007874959e-01 -4.6880412985320401e+00 3.9326451197551049e+00
982 2.2465288727467985e+00 3.7255774048018209e-01 -3.4217931055552677e+00
983 -4.6759156316916171e+00 -1.0238858129028712e+00 -5.7148607788678989e+00
984 1.0877186057710424e+00 -3.7883325084074144e+00 4.4282246214720983e-01
985 -9.6074237292323683e-01 2.3733690335151838e+00 -3.1274822301466139e+00
986 7.3501632862755573e-01 -3.7454147492700445e+00 2.1362038750238002e+00
987 -3.8332725942849427e-01 1.6533590616684297e+00 -4.4031453116647681e+00
988 1.3401374701075821e+00 8.2221513452505546e-01 9.7659893846244461e-01
989 1.0424432759422644e+00 -6.4508386039765675e-01 4.1389745796520909e+00
990 -4.1861613844216095e-01 -1.9848117652271839e+00 -1.5769114766151748e-01
991 -3.1693966686747324e+00 -1.5471446125028341e+00 -5.9100918354763743e-01
992 -1.0191759664770093e+00 5.3541957084647485e-01 5.2247443477726510e+00
993 1.9037689178423489e+00 3.5754675812493284e+00 -1.6795632533042772e+00
994 -1.5762518719516039e+00 -1.0154809432359531e+00 2.2901716059032156e+00
995 -7.1626628213101471e+00 -3.4449733565726035e+00 3.4122753136522654e-01
996 -6.0173119552185861e-01 5.2837334426802833e+00 1.2021157175257611e+00
997 -2.2080039258689563e+00 -5.2603558001926300e+00 -1.1355596655368989e+00
998 -3.4993970952967146e+00 1.2533154545510270e+00 4.3260152569762417e-01
999 1.0671109833385390e+00 6.9327839906334425e+00 -3.0258446694597212e+00
1000 -5.1664238054103584e-01 -3.2558384655533672e+00 -2.1642254984384909e-01
1001 5.3125941649820732e+00 1.8963417637845266e+00 -3.8174435594388317e-01
1002 6.7567571549340677e-01 -3.2513807595221396e+00 -1.0572509013151361e+00
1003 2.8426525467960939e-01 3.3151158794767316e-01 -5.1036701087717704e+00
1004 8.7973137999054130e-01 7.4969639273303756e-01 -1.0124551589914950e+00
1005 1.3921071398192488e-02 -4.9465380530535503e+00 -4.9342143575575070e+00
1006 3.6166125803649107e-01 -1.7929654597955347e+00 -3.1028798930457430e-02
1007 2.7991885402885299e+00 -5.7995006231490331e-01 -9.3718609021737844e+00
1008 -4.0453405398932080e-01 -1.2916959120335827e+00 -6.3019957466602938e-01
1009 3.0000526068286653e+00 -5.2634338327873618e+00 8.1344630558605491e-01
1010 4.2165686526112420e+00 -1.6807779034833297e+00 1.2682914075027112e+00
1011 3.2220394485649702e+00 7.0099341725658793e-01 -2.2843798979156222e+00
1012 -1.9052006617490491e+00 1.9972467675762584e+00 1.5900344353237854e+00
1013 -2.6223917041133884e+00 -3.9228192524797190e+00 -4.2707079361259188e+00
1014 4.4618555021602093e+00 -1.8244574350437512e-01 6.3376686460332374e+00
1015 1.8524051987732053e+00 1.4655384387783914e+00 1.0212316440666478e+00
1016 2.6829099167662172e+00 -2.5940658439427406e+00 5.8000515014320797e+00
1017 -3.3444490305932395e-01 -2.3454095944488342e+00 1.0088561055786691e+00
1018 2.9331404117144095e+00 -2.7054790303880161e+00 1.5221535193472449e+00
1019 -2.3889035838077906e+00 -1.6881129463905002e+00 -1.6321248376341970e+00
1020 2.0502559970285206e+00 -2.9780740396031349e+00 5.1721137889248081e-01
1021 -1.1450887798627862e+00 -2.8249283756902908e+00 -4.0463598634421150e+00
1022 -3.2299869874061398e+00 -4.3870571935410787e+00 2.4063816360634260e+00
1023 -8.0576566943185579e-01 5.2900726497657780e-01 3.9285417647844820e+00
1024 -3.2762497230036591e+00 -2.5282316049928752e+00 6.8396030807109720e-01
1025 -6.0821909606951134e+00 -1.9296393529616120e+00 -3.0839533738566569e+00
1026 8.8483126702069204e-01 -1.1433976698874100e+00 5.3922678514370261e+00
1027 3.1272947601482000e+00 -2.8450290945138836e+00 -1.2914537008921072e+00
1028 -9.3333140812761273e-01 8.8787894128204705e+00 -4.0551771091447524e+00
1029 6.7868055673976657e-01 -6.9503077743616579e+00 -2.3132128280750095e-02
1030 5.1284242573541059e+00 -1.0967815568195547e+00 2.9659415055609100e+00
1031 -2.2045388820803641e-01 -1.4087751126041488e+00 -8.3912021810646176e-01
1032 -1.5759467177207835e+00 -1.6810871220117178e+00 -3.5718283692355501e+00
1033 5.0242599138468549e+00 -1.3106696463050762e+00 9.7955785721410038e-01
1034 -2.3536569575872166e+00 2.9993349327908341e+00 -7.3454998686397077e-01
1035 -3.0353833468569563e-01 -6.0985197415498691e+00 1.3203387589630384e+00
1036 4.8642419540780404e+00 -2.3336408181994206e+00 -1.2304335934964474e+00
1037 -3.7956149889963848e+00 4.3067694483641200e-01 2.1348158709993995e-01
1038 1.8932786497944132e+00 1.4808127602222676e+00 -2.1817621825319025e+00
1039 7.5006432098036802e-01 -1.0946836290206106e+00 -3.6379284583573659e+00
1040 -3.4063246819703946e-01 1.0208190381949334e+01 6.2166793617128819e+00
1041 4.6623628231412290e-01 5.7980265062675276e+00 -1.5132579435013083e-01
1042 -1.4268668290334788e-01 -5.2349759962895757e+00 -2.5780684884309855e+00
1043 -2.6124913991250427e+00 3.5851028632623905e-01 4.6629880486082957e-02
1044 -1.5545717946896291e+00 -1.5810769243874125e+00 -4.4615319227273259e-01
1045 -4.6061639390651496e+00 -2.0427753327957627e+00 -1.2713687826321585e+00
1046 -3.3536685987731500e+00 -8.8675239110171022e-01 -2.2416181288440282e+00
1047 4.1192455718898904e+00 -8.1293672167505293e-01 -6.3201900859763904e-01
1048 1.1493379624242137e+00 1.4955672768015120e+00 -4.6621438753564339e+00
1049 -1.2563448233021151e+00 -3.0310674725805611e+00 -4.8405407866498107e-01
1050 -1.4401561883080469e+00 4.2176178021656663e-01 -2.6327220410274026e+00
1051 -1.8931568967013632e+00 -1.9711563514575465e+00 3.6097808563748952e+00
1052 9.8816075155793326e-01 9.9053727683505943e-01 -7.6881976690977238e-01
1053 -1.2827990093703758e+00 1.8706019117711397e+00 2.5922672282934891e+00
1054 4.0672038696419575e-02 3.0655447666519469e+00 3.4213518203928701e+00
1055 -5.5507509833716053e+00 1.4350506586821161e+00 -1.4205140564228327e-01
1056 1.0426303015098404e+00 2.9966120630752759e+00 -2.4718223858332466e+00
1057 -5.4026242925443979e+00 3.6884727803122757e+00 -3.3293363082012428e+00
1058 -1.8426316519124410e+00 5.4944653599727933e-01 -1.8423156241694418e+00
1059 -5.3090497506093106e+00 1.1400198751585583e-01 -2.6057739221070473e+00
1060 1.6053689993127045e+00 -1.3589130906421245e+00 -1.8486105686435204e+00
1061 -7.0022350684239310e-01 3.5082890758758674e+00 3.0273054660456098e+00
1062 -2.9355230004891508e+00 7.5177546333993615e+00 -8.7477221930641624e-01
1063 -3.8426024356483364e+00 2.9617110584423063e+00 -1.2059566965400137e+00
1064 5.7831519710226242e+00 2.2754547578852793e+00 -5.3360108717900323e-01
1065 5.2526860690566597e+00 2.8312804986515836e+00 -4.0976147393980069e+00
1066 2.3855094069199714e+00 -1.3868683257221068e+00 -2.2374713559876358e-01
1067 4.3698652587834175e-01 -2.9312481537830402e+00 -4.4458819501225051e+00
1068 9.8757095337722012e-01 -3.7276745021106912e+00 -6.9149153789863567e+00
1069 -2.7879014066544285e+00 1.1039909585273773e+00 -8.9988870780843311e-01
1070 3.4024907933072899e+00 4.9341355056676561e-01 -2.0576891085119771e+00
1071 -1.4657425955723031e+00 -4.7899878380012186e+00 3.6204704217655128e+00
1072 -3.7085199144719980e+00 -2.4714718850153621e+00 -4.3039939426903362e-01
1073 7.8466994478827677e-03 -5.0104209805986528e+00 -3.0194086776469793e+00
1074 7.1168509904004551e-01 3.0335249536961486e+00 9.3714182865913986e-01
1075 -8.6059787505733121e-02 -5.2096786388608791e+00 -2.0584595861354202e+00
1076 1.4003125469853483e+00 2.9025501424798614e+00 2.3881457253397529e+00
1077 4.6038458510080332e-01 4.0166066557495972e+00 9.6079111698916719e+00
1078 -1.5946336994948935e+00 -2.0491129879744396e+00 4.0774193172424065e+00
1079 7.8513034490749423e-01 3.7447753119640725e-01 1.3083286779764360e+00
1080 -1.7574224074632430e+00 -2.7786247785873881e+00 -2.0867908449823327e+00
1081 4.1544696075161243e+00 -4.7903189608950774e+00 1.6627086109337663e+00
1082 -1.4974983148554231e+00 -9.4885820160404410e-01 1.9949665632436475e+00
1083 2.8141874261447311e+00 1.1436172265434585e+00 -6.2457097694831551e+00
1084 4.2183430192813187e+00 3.5181301665740161e+00 2.4552551999859598e-01
1085 3.4203552973247502e-02 6.0067325903218771e+00 3.1584142775149613e+00
1086 -7.8661119592199943e-02 -7.8498568792299839e-01 -5.1968444402128544e-01
1087 3.9253497204816585e+00 3.4677372622954015e+00 -5.3797800897025532e+00
1088 1.2476543928036052e+00 2.3203323193055136e+00 -4.0451439455554974e+00
1089 -9.8856348552935625e-03 -5.9253548164263972e+00 4.3177949960527684e-01
1090 -5.5938861453341957e+00 -1.8306181259053884e+00 -1.6408297528873885e+00
1091 -2.3635811078769016e+00 4.8399591859738367e+00 1.7856006021827076e+00
1092 -1.0729194000087863e+00 -2.5054938375410827e+00 -6.4116043076665952e-01
1093 -3.4314630555369745e+00 3.2446273511055144e+00 6.6579947740690333e+00
1094 2.8280447125558861e+00 8.9065250541038388e-01 -4.4474520524756794e-01
1095 -1.3507819925250055e+00 5.8194578409338069e+00 -1.9203934071925779e+00
1096 4.1918505002204745e+00 -3.0384009495936071e+00 -7.9543908562666643e-01
1097 -5.7153316051793039e+00 5.3094878358763631e-01 -4.2137595971568400e+00
1098 4.4709785669300430e+00 1.1070305078149498e+00 1.4430138393644545e+00
1099 9.4255993732971044e-01 -3.6429561736501950e+00 4.1385866468962940e-01
1100 4.9329157126996392e+00 2.2971625142113081e-02 -2.7308845137815303e+00
1101 -6.1764311484174446e+00 -2.3785097355180409e+00 -5.8759568128893811e+00
1102 2.2300992038489804e+00 2.0975846662835518e+00 -2.3513744787309889e+00
1103 2.0472525774160801e+00 -1.9221241066305867e+00 -1.5209576690634147e-01
1104 9.9877234400105808e-01 -1.1921181899435709e+00 1.1229565926518972e+00
1105 -5.6208732229087595e+00 3.9170731848471235e-01 -1.1654364217955163e-01
1106 -5.4949599779831440e+00 -4.8593669542109268e+00 -4.9931792723702797e+00
1107 1.3814601876176527e+00 4.1332962764155584e-01 9.1348115689444875e-01
1108 -3.5615818890756366e+00 3.0583641992939454e+00 2.6391181009873654e+00
1109 -2.5573531776538716e+00 3.9214425568894935e+00 -8.3667290266904082e-01
1110 -4.7694528225022159e+00 -4.3841001210111381e+00 1.9701889775008674e+00
1111 -3.4693921929017957e-01 2.9383468487151765e+00 -2.9467038309970822e-01
1112 7.1874793764463807e-01 5.7020777189759961e+00 3.7508090189793335e+00
1113 -1.4432145230081543e+00 1.2502916253469674e+00 1.6486734917440748e+00
1114 2.0444820298076447e+00 1.9067232765841208e-01 -1.3252281383733988e+00
1115 -1.2079882274305433e-02 -1.6014640986880913e+00 5.6130014997478996e+00
1116 3.3315890799621264e+00 -5.4674556899162086e-01 1.1500472659458132e+00
1117 -5.5170556577415952e-01 3.9787302274389336e+00 3.4973757523518709e+00
1118 1.5268296758082802e+00 2.3395124851503986e+00 1.7737599332782226e+00
1119 3.9147790382199101e+00 1.7709986574434768e+00 5.0649546729004280e-01
1120 -1.5499620496966007e+00 -4.2204536581495784e+00 -7.4778268957933949e-02
1121 -2.4709674868638114e+00 2.0009357825983914e-01 3.8028321607228412e+00
1122 4.6406756254753523e-01 -1.1143594713792195e+00 -2.2908147836546195e+00
1123 -4.7686272351691983e+00 4.4440915714625442e+00 -5.9241791526883807e+00
1124 -2.5100725888160276e+00 -6.2113930219503475e+00 -8.4890106175111579e-01
1125 -1.1413099022939941e+00 -1.3480749059478707e+00 -2.1049964983607516e-01
1126 -2.2052550095602879e+00 -2.4533414861568650e+00 4.8812142744497455e+00
1127 -1.1138958509356351e+00 3.0264870179329444e+00 -2.7901202368016005e+00
1128 4.3304871026684655e+00 4.0658708543754098e+00 6.2032968663965871e-01
1129 -3.6662661494837279e+00 2.9009647152571799e-01 1.5773160892121169e-01
1130 6.4343639272733233e-01 -2.6267108897317399e+00 -4.0895488977800412e+00
1131 5.4138154072816724e-01 -3.4315252921511989e-02 6.9189304527977535e-03
1132 2.7571574524045470e+00 -3.9610902088057278e+00 2.7139074212955632e+00
1133 -2.4782098020217433e+00 -1.3178241451360624e+00 -2.7534697009059812e+00
1134 2.4064659098793989e-01 -5.1174883075256705e+00 -1.5254196477442556e+00
1135 -1.7197329985286207e+00 4.2144350793228265e+00 5.0248624677075882e-01
1136 1.8676007155856820e+00 1.5946861232310990e-02 -2.8164996549228389e+00
1137 3.0249740163304253e+00 -2.8190303885906105e+00 -1.7547000550078247e+00
1138 4.8897300271086880e-01 2.5389538860398804e+00 -5.4075631212873954e-01
1139 5.0366771889400050e+00 -1.9055313932432625e+00 2.2193336579174625e+00
1140 9.7104650325833056e-03 4.1531119800532963e+00 5.7572146868517404e-01
1141 -6.2596913820756379e+00 3.6289330516095601e+00 -2.7191447332009122e-01
1142 -1.4850778244103597e+00 3.2838960912268838e+00 -8.8962754179291303e-01
1143 2.0005892515142421e+00 -2.5620889580452539e+00 -2.7879831740660745e+00
1144 4.8617609857282806e+00 -2.1133345866034223e+00 -1.5702226688431025e+00
1145 -5.6962062133830393e+00 5.4349950139461480e+00 1.3270812676763153e+00
1146 6.3848414376381446e-01 2.6184345735970043e+00 -3.5695248954722723e+00
1147 -1.8040604876864572e+00 -3.0488897364041068e-01 -5.1632049802309048e+00
1148 3.5214345893216090e+00 -4.9485551652337777e-02 -8.6809229668240140e-01
1149 7.8766769557794447e-01 -2.5094021594354707e+00 1.5042430780394958e-01
1150 9.2036015979334707e+00 1.6236877932937988e+00 4.4797367334434792e+00
1151 -1.1839852901336845e+00 -2.5060234422888503e+00 1.0326722700349336e+00
1152 -3.6027363636951395e+00 -6.1946262267394117e+00 1.9644668778842505e+00
1153 2.1384709146321286e+00 2.7803844178434485e+00 9.3929317876908100e-02
1154 5.3123119965621122e+00 -2.3449301325903196e-01 -1.4875020962193879e+00
1155 -1.0024836519275540e+01 -1.5726935459953506e-01 2.7738042120600053e+00
1156 1.8423640456819129e-02 3.0187520314350582e+00 6.1621982303559451e+00
1157 -5.7801704384215558e-01 4.1054784381203113e+00 -5.2878495275901454e+00
1158 2.7692905642554844e+00 1.7048417653895129e-01 -5.9447615728093639e-01
1159 -5.4483557645134340e-01 -5.2117657980999166e-01 -1.0296690523798384e+00
1160 5.3347521565723588e-01 -4.6800797178594256e-01 -3.1035255651808971e+00
1161 1.3906199380710349e+00 -2.0268682562523530e+00 3.4943951365216170e+00
1162 -9.0831924814113188e-02 3.4108379635442260e-01 -5.5025826413444427e+00
1163 -4.1902605110133768e+00 3.1330399840358716e+00 -2.4468304865064678e+00
1164 -1.4296977326332969e+00 -7.4632238027403619e-01 3.6619116997217342e+00
1165 1.2475216586283513e+00 4.3689320006508856e+00 -8.9277533539199927e-01
1166 5.7241935427908652e-01 -3.2309405822105455e+00 3.1632409116632445e+00
1167 3.6227538522370517e-01 1.4714358564911026e-01 1.1280756435179526e+00
1168 3.8849155628185779e+00 -5.7596070117249154e-01 4.4655801237900805e+00
1169 -2.8393076166999842e+00 1.4077277514599784e+00 6.6995164530522917e+00
1170 -1.3152469568126308e+00 6.5855923535227101e-01 2.3562702177570110e+00
1171 -4.5981125174486787e-01 -5.0027615976114674e+00 -3.5209793680685042e+00
1172 1.5599159658591264e+00 2.3938904584489316e+00 2.1066822822280855e+00
1173 3.8226504013193860e+00 2.4002664875246427e-01 6.9433041293122599e-01
1174 -4.0784550857053095e+00 8.5208940040062531e-01 1.6451659924817004e+00
1175 -1.9446533795412009e+00 2.1473522397768479e+00 -6.0548799547459593e+00
1176 2.0168471816354918e+00 8.0632128357177224e-01 5.6673906962565761e+00
1177 4.7117769996427521e+00 5.0248588688559215e+00 2.7255199616479491e+00
1178 1.7362875474248818e+00 -3.1729078196980955e+00 -8.9978472454187775e-01
1179 6.0910234859145032e+00 -4.8554188534201295e+00 -1.5014148381533776e+00
1180 -3.8109170399996790e+00 3.8960852667372907e+00 -1.5192319117861457e+00
1181 5.1500785413860983e+00 -1.3796451455771312e+00 -1.6809725088312473e+00
1182 3.4330972869829819e+00 2.5209441290703918e+00 -7.2937361466621908e+00
1183 1.5042789284825113e+00 2.0011898919931901e+00 6.9957794174126120e-01
1184 -1.7659384925630801e+00 7.6282149097457744e-02 -1.0688717959117635e+00
1185 7.0463319806979952e-01 -6.7486122228943823e-01 -2.0737504666002717e+00
1186 4.3975521227079928e-01 2.1547031301736386e+00 7.7603652200742057e-01
1187 -1.8460591456424660e+00 1.1212017375348511e+00 3.5671040817074675e+00
1188 4.2839676794003569e+00 3.2425114235047574e+00 1.4429693899787932e+00
1189 -3.3648121617663387e+00 -4.5532841166703433e+00 -6.7481771137271940e-01
1190 -3.7839327346606204e+00 -2.1072982513158967e+00 -4.5681117641149543e-01
1191 -1.6145459482925941e+00 -1.0934063899051152e+00 -4.4280841428773243e+00
1192 6.2153286129030527e-01 2.6758161769394926e+00 -1.4718547451037420e+00
1193 2.4199507028526162e+00 8.8785669081739460e+00 -3.0613369737027368e-01
1194 1.7486243808974995e+00 5.2836561594246056e-01 2.6036265912997640e+00
1195 -5.7306474008811774e+00 -3.5243051173453819e+00 4.7836455680147838e-01
1196 2.3816654369481212e+00 3.5048216571330648e-01 -4.4696999967749669e+00
1197 -2.7462471247323252e+00 -2.6498594095560257e+00 1.2970504981443420e+00
1198 -2.0462214771030012e+00 -1.8280982902755607e+00 2.9127563097512783e+00
1199 4.4524640272134395e+00 -1.3780190027518817e+00 1.4167908356815628e+00
1200 -5.0521466227689356e+00 5.3254637850610864e-01 3.1953204115485807e+00
1201 1.7564951716725579e+00 3.3697617701497545e-01 -1.2958868912800541e+00
1202 -1.7367612199237237e+00 -4.8087077300556330e-01 -4.1659184698181733e+00
1203 5.3698968497314228e+00 1.8812978047057047e+00 -3.4156492945818606e-01
1204 -1.6642952771447099e+00 -1.8887543687816225e-01 2.1422331812591575e+00
1205 3.3725608152176521e+00 -3.0132571794028049e+00 -3.2461236782967053e+00
1206 5.5804479932991233e+00 3.0519708817338209e+00 1.9025125961822240e+00
1207 -4.6230052264461990e-01 3.0810433363340084e+00 -4.2454548125738505e+00
1208 4.1130934338967409e+00 -9.6055317901672585e-02 2.1236155582780851e+00
1209 2.1547414994183214e+00 -4.3870861128564420e-01 -5.8473966147331458e-01
1210 3.2801861735117774e+00 2.7563433710623126e+00 -4.7587821242809136e+00
1211 -5.6431392282280335e+00 -3.1550677147769419e+00 -2.9794280289534845e+00
1212 -3.0034575445625999e+00 7.3066952181578992e-01 -1.2451358116288416e+00
1213 4.0216887819322880e+00 4.8444597727903398e+00 -9.5641074224182415e-02
1214 4.5204090498149467e+00 6.5020089620557248e-02 -1.1674966849588013e+00
1215 2.1602086239385368e-01 3.1505308837491954e+00 -5.3832410562090010e+00
1216 -5.6012938411205637e-01 7.9859151778777193e-01 9.7495230450347814e-01
1217 -1.2285101241305068e+00 1.6298018484074241e+00 9.7404713632033935e-01
1218 -1.5893873648039671e+00 5.8580127843959069e+00 1.1802770189527461e+00
1219 -1.1042941501441952e+00 -1.9063337086992940e+00 3.4324498677605670e+00
1220 2.7405020928020601e-01 6.8421736986257731e+00 -1.1705402870197601e+00
1221 -4.1433350207406736e+00 -9.2357438989317114e-02 5.8374302504436348e-01
1222 -5.6884482490123309e+00 -8.3017704803949421e-01 -9.8926646587930356e-01
1223 -1.2296011125092337e+00 -2.1014178581545218e+00 -4.4787265636129705e+00
1224 2.0354782668924383e+00 -1.5677251914151258e+00 -2.7488357005825574e+00
1225 -2.5339165329566136e+00 -1.5749094583285956e+00 3.6227178747847294e-01
1226 1.7946189892475490e+00 -2.5594706611603133e+00 -1.2870058887813653e+00
1227 -4.4864462909937526e+00 -1.1311248093553880e+01 5.1947758317126402e-01
1228 4.0815023990813089e+00 1.4018941578394630e+00 -1.3615537093483470e+00
1229 3.2169900067128526e-01 -3.9173073293681977e+00 -4.0777030461173680e-01
1230 -1.1484817780778045e+00 -2.2897020591349380e+00 1.0892544195310165e+00
1231 8.6689687125540669e+00 5.5532566668918291e+00 -2.4031949609614606e-01
1232 2.3740182458386760e+00 2.3165357325291422e+00 -1.7387644008078753e+00
1233 2.1470267187270422e+00 -4.8048283343626039e+00 -2.6851781732851778e+00
1234 6.4109747255877425e-01 -1.1137848166322473e+00 4.7164836876500349e+00
1235 2.1608189559069162e+00 -1.2738637437969829e+00 -1.5690958621410047e+00
1236 5.0205211842862429e-01 -2.8343049455451976e+00 1.5993328885780131e+00
1237 -4.5857918195753058e+00 2.0773584013765372e+00 -5.4882287885281567e-01
1238 1.1133172057150924e+00 -2.7189883680916185e+00 6.5783249772584351e-01
1239 8.0437059944823552e+00 -1.5245385519085668e+00 1.0583346319612865e+00
1240 4.0427374322895124e+00 2.0453224343510730e+00 1.1596957634434162e+00
1241 -3.3800344525820072e+00 -4.2599767321603679e+00 1.7816454734996748e-01
1242 -1.2438775522770407e+00 -5.1174977130286209e-02 5.5222780653685610e-01
1243 -2.2554736071025601e+00 1.6475317400748737e+00 6.1971494813920938e+00
1244 -2.7102750842695755e+00 -1.2608224696309320e+00 -1.3321418015884023e-01
1245 3.8027362962145346e+00 -3.9558592015616822e+00 -3.5516182202128888e+00
1246 -5.8098468279395652e+00 -1.1824574147383191e+00 1.8263224681924115e+00
1247 3.5518736497356866e+00 1.1908892722949300e+00 -2.0038243965828846e+00
1248 1.8970124430700015e+00 5.4863479470611132e-01 -5.1574647161680511e+00
1249 -4.0949460133422466e+00 5.0411471816380162e+00 1.0743571139357166e+00
1250 -3.6915879011698034e+00 2.2017321270354975e+00 2.8501574403349137e+00
1251 -1.4505727223118021e+00 2.1929680079427136e+00 -1.2470950768729457e+01
1252 2.6142413352990239e+00 3.1555187183387292e+00 -3.0200435562868311e+00
1253 9.4058247904774650e-01 -1.1274254503883874e+00 -3.4187318225121688e-01
1254 -1.1408858819905761e+00 -3.5774701055916758e+00 5.0760982856450489e+00
1255 -1.0346971118467843e+00 3.4929407687964775e-01 -3.3657342838604261e+00
1256 -2.7841881659695416e+00 1.1079062657412400e+00 1.4134641882452861e+00
1257 2.9273407734617631e+00 3.6804119935234008e+00 -7.0091373002100066e-01
1258 -1.1927708393382730e+00 2.0053390767489052e+00 -1.7116471166774947e+00
1259 2.9067820192445946e+00 1.2487296725874473e+00 3.8513075440024100e+00
1260 1.8001308910492395e+00 -2.8313902634840016e+00 -2.3243931636869570e+00
1261 2.4423909841099536e+00 6.3588661980588563e+00 -4.4107689053518442e+00
1262 6.2327631251735745e-02 7.5635047477199580e-01 -4.0970066867891264e+00
1263 1.5942547723013878e+00 -3.1050762198372761e-01 -6.9907383953096929e+00
1264 4.3546521818359976e+00 -2.3178804367757420e+00 -3.4437688479050665e+00
1265 1.4009156420361859e+00 1.8588778909847952e+00 2.4554821514258851e+00
1266 -1.0364934230555074e+00 -2.9307100788410093e-02 -1.9623570095833798e+00
1267 -4.3687076037636592e+00 3.5982414646340728e+00 -3.4265077594841964e-01
1268 -4.8954891375450738e-01 -5.3684188090245444e+00 -4.7896079296186100e-01
1269 -2.8092044608475608e+00 -5.8222986030982726e-01 -7.3104530835198345e-01
1270 -1.1988440131553397e+00 2.5209627012525515e+00 1.2004265610059113e+00
1271 3.7583717176187492e+00 -4.4174899306669575e+00 -2.1638715654210197e+00
1272 -1.0816176063177527e-01 -1.0919040068734622e+00 -2.1282226852511549e-01
1273 -3.9415926798149172e+00 -2.3880163017893810e+00 -5.4735796003563406e+00
1274 -2.3898901436616997e+00 1.8639982849020040e+00 -5.7518677029741272e-01
1275 5.0207671739772906e+00 -1.9857416541721931e+00 3.9702931318752632e-01
1276 -3.2578163400241351e+00 6.9833052069412194e+00 -4.7963073356565306e-01
1277 2.7663086895728286e+00 1.3783865042165564e+00 -1.9468791510252932e+00
1278 -3.5737264493045169e+00 4.1927438329423616e-01 -1.4950877752831921e+00
1279 -5.1851184659327199e-01 2.1716944802005123e+00 2.6088645654952597e-01
1280 1.0126299411289554e+00 4.0290397561219432e-01 -3.9398472452946596e+00
1281 4.6550145565629064e+00 3.9207490705827213e+00 -3.7884156963101696e+00
1282 1.3568295297028761e+00 -1.7776627592010499e+00 -2.0056143203203285e+00
1283 -1.6143982740877666e-02 5.8274058835339622e+00 3.5276421523970130e+00
1284 1.6251359931510934e+00 -3.0895978914893107e+00 6.8591890156336452e+00
1285 2.9133592676565003e+00 -7.8319378709425358e+00 1.3320028656994283e+00
1286 -1.3122394997596056e+00 1.1008816427860000e+00 1.0757966014385216e+00
1287 -3.0626999890223838e+00 6.0882135350303859e+00 6.6615966233339985e-01
1288 2.5277005576340863e+00 3.6288327350480016e+00 -1.9820954177098837e+00
1289 -3.0401908898173899e+00 3.7408756258009190e+00 4.6442619421777813e+00
1290 -3.6975602592714343e+00 5.4005755874406507e+00 -6.3237178820854290e-01
1291 2.3066787856198578e+00 1.8818898878750379e+00 -3.2388332354764473e+00
1292 -2.3201357835233560e+00 -5.5948470076718175e+00 -3.0910599785900068e+00
1293 -4.9431516720819664e+00 1.3401081737085616e-01 4.5661196000708797e+00
1294 -7.2889370559011069e-02 9.0988873378501889e-01 2.0890894607738346e+00
1295 2.2664157456059515e+00 -1.2865123451733187e+00 -4.8793618081122023e+00
1296 -1.1541106320949182e+00 1.6905800321880790e-01 -2.3405353909452762e+00
1297 1.2069178453548608e+00 -9.7601601969330143e-01 2.0733949182638201e+00
1298 -2.1568528041801547e+00 -2.4756608586892881e+00 4.7636831856479427e+00
1299 9.5884485348409043e-02 1.8437966274820257e+00 -3.6625671780309852e+00
1300 -1.0130277742187181e+00 1.8317565377989156e+00 4.2039803287377024e+00
1301 -2.4157151304496232e+00 -2.6772390581700027e+00 -7.5587067402668365e-02
1302 -4.0932947780792537e+00 -8.0913735570105130e-02 -1.7380818797760136e-01
1303 2.4165956610152692e+00 4.7168592949146868e+00 1.9000826771915276e+00
1304 1.9912074930653949e+00 1.4037905966622261e-01 -9.6598352243169505e-01
1305 -6.6553634996325721e+00 -2.9550050322181276e+00 7.2445166341283906e-01
1306 -4.4187363083248332e+00 6.5220598701796517e-01 -1.0763184510807577e+00
1307 -3.4062780288804180e+00 -1.5672439542483299e+00 2.4300411546654077e+00
1308 2.3777411444702725e+00 -5.2012758066344773e+00 -4.0139338309708850e-01
1309 3.0472470355750096e+00 -8.5992180666507423e-01 3.6283245233750572e-01
1310 -4.0154664148559016e+00 -1.2889828868061735e+00 4.9106144929860944e+00
1311 -2.6277254577386104e+00 -4.8036287701808433e+00 4.9839700124168956e-01
1312 2.1176217540510605e+00 3.2056112538127950e+00 -1.3901850762605041e+00
1313 7.4182013586160345e-01 1.8150909681223342e+00 2.1647205021721407e+00
1314 -1.4693448316034818e+00 4.5989965377917130e+00 -1.8455249702544698e+00
1315 2.3603212042044923e+00 -7.3060586787445092e-02 -1.9580151742773038e+00
1316 -1.7261796362698041e+00 -1.5744544641250671e+00 -1.1999349363967236e+00
1317 -3.3973610280961570e+00 2.3254353067759195e+00 -2.3457937941882916e+00
1318 -1.6514495134744729e+00 1.3122284241186910e+00 -2.8989862512555015e-01
1319 -4.7411799708019995e+00 -3.1210198615942142e+00 -6.5539833167530293e-01
1320 -1.5439531623694058e+00 2.0151902551537431e+00 -2.0525667732128094e+00
1321 -3.2247779558922418e+00 -3.3695542551245419e+00 1.3559534882818196e+00
1322 1.2982147654180913e+00 -4.4908360526197004e+00 1.6703917969692264e+00
1323 2.8708198813139463e+00 -5.6384444909218088e+00 -2.3021670265694762e+00
1324 3.8368515538934167e+00 2.7015769895149888e+00 6.6573068448628772e-02
1325 1.6713605191661851e+00 7.0422951942760132e+00 1.6765207435775591e+00
1326 -3.2781070828663341e+00 3.6651242824954120e+00 -2.3386387798512804e+00
1327 3.3140567733429762e+00 2.1882617330417466e+00 2.9659842879862888e+00
1328 4.1377020273592224e+00 -3.9362625018727599e+00 -1.8685868201036154e-01
1329 6.4888862330321606e+00 3.2556366381795301e+00 5.9071482751955939e-01
1330 -2.7474170531889244e+00 2.8656509211949371e-01 -2.4485770360613275e+00
1331 -4.8961067621231908e+00 1.9222042990269146e+00 2.1775429806151511e-01
1332 -2.0770309567302738e+00 1.0605120068489866e+00 -1.3530414648393305e+00
1333 5.9337423982658235e+00 -1.0194042501120074e-01 5.2586257321752017e+00
1334 -2.1825302944081084e+00 1.6469607216341418e+00 4.9506897783712969e+00
1335 9.0392281393581553e-01 3.7893585708325492e+00 -5.7962748188486257e+00
1336 1.8987930765878640e+00 8.1592619388564783e-02 2.0541777502796377e+00
1337 2.8931334381168439e+00 -7.5232157807825679e+00 -1.4791441359531960e+00
1338 -1.7991416438980017e+00 4.0859017720149315e-01 -5.2107061759097064e+00
1339 -3.6361802051628045e+00 3.3407934645060804e+00 5.8982824250614785e-01
1340 -2.9215287398341321e+00 -6.7993743384573446e-01 2.9490748332772916e+00
1341 -6.1338314244292667e+00 -7.0498526265063666e-01 -7.6578661317384700e-01
1342 5.0207576492260375e-01 1.3527449615070488e+00 5.1296378024959219e+00
1343 1.8465219738377279e+00 -1.9588917961831018e+00 4.1944945675568732e+00
1344 -2.3056901424902687e+00 1.1712464185692661e+00 4.2196811653004156e+00
1345 3.5921869886670774e+00 2.7044885701585395e+00 -7.4408147600825858e+00
1346 -2.7121122546674870e-01 -1.5772152601482572e+00 3.5575266545424022e+00
1347 2.8030491153865769e+00 8.7062960355682284e-01 2.6489775660203767e+00
1348 -1.7443454687139157e+00 1.7031761578336218e+00 2.5510045887769023e-01
1349 -5.6124664162426567e+00 1.1471836895426115e+00 2.3579400233916563e+00
1350 3.2045481712825974e+00 1.4161398415997299e+00 2.7031940606358322e+00
1351 -5.7762533592053309e+00 -1.2451014424845510e+00 -4.7518511346586656e-01
1352 -8.8542180156915451e-01 -2.3909525218850050e-01 -1.5504202110813052e+00
1353 2.4546621436182661e+00 -3.3050649683751074e+00 4.1738085978725931e-01
1354 1.9642913380086602e-01 3.8649921574074225e-01 -2.5448224506892703e+00
1355 4.6655769975323897e+00 -7.5398448651194117e-01 -4.7976996316902136e+00
1356 2.1516476711469275e+00 -8.9455744110273211e-03 -2.6030676613172338e-01
1357 -3.1967271724738872e-01 1.3185406989505892e+00 -1.7753301887572229e-01
1358 -2.0769954577674046e+00 -3.8107866123451264e+00 8.1482692416876867e-01
1359 -5.0622918766007032e+00 3.7335412248670981e+00 -3.1805435857906761e+00
1360 -2.2813773975000187e+00 -2.6365899201467595e+00 -3.6601262488255686e+00
1361 -2.5761442095362335e+00 -9.4571761410853772e-01 -7.7611375295821503e+00
1362 -6.5659070883748498e+00 -1.9222353005427419e+00 2.3720907815751318e+00
1363 -4.3361724721489496e+00 -2.5454420921571591e-01 4.7700330408056066e+00
1364 -3.5536071102482985e+00 -1.1770707917857413e+00 -1.9955076418786581e+00
1365 2.9741669754881714e+00 1.5467322882753538e+00 2.0595215896702812e+00
1366 6.7033609550557332e+00 4.3754550266266099e+00 -2.6595411320517748e-01
1367 -6.7351977220683701e-01 -4.8309492388301729e+00 -5.7156920350070557e+00
1368 -1.3329718509941307e-01 -3.4891272553575194e+00 1.6791998544192182e+00
1369 -2.6399001566043605e+00 -1.9437600956665320e+00 -5.1772410588708606e+00
1370 5.6661689084052513e+00 2.0376035904996272e+00 -1.9062995241420286e+00
1371 5.0398301521815536e-01 4.4117012245433527e+00 -3.0937298064292627e+00
1372 5.1195849272411174e+00 -2.7715885254951416e+00 -4.7624976596600538e-01
1373 -5.5030037194833001e+00 -8.4643838076603632e+00 3.3680356801597284e+00
1374 2.3012663466338418e-01 -4.6557509040920779e+00 -4.4053304335003078e+00
1375 3.8190805569731339e+00 -5.0214268710876797e-01 4.7729887483850693e+00
1376 1.7093581638889956e+00 -1.7873407452857318e-01 8.6812229411716457e-02
1377 -1.8508315144222836e+00 3.2605693592469720e-01 -2.0334765876610778e-01
1378 2.2488936830544102e+00 -4.3881001038921735e-01 2.2114052218548221e+00
1379 3.0697462677485197e+00 6.0273286489397448e-01 -4.3779472905230579e+00
1380 -4.3091088488138335e-01 -5.1181777876489667e+00 -3.2400116089409474e+00
1381 2.4354989224054666e+00 1.6501651185861885e+00 -1.0699649249945707e-02
1382 -8.1209131533876722e-01 -1.9854340474442973e+00 -1.3769992784269975e+00
1383 3.2185241298634613e+00 1.5894341159398631e+00 -4.5721693183048631e+00
1384 5.3395820775853609e-01 3.7582717314623759e-01 4.4270060295377389e+00
1385 -5.8603613814289757e+00 -2.6112585924852754e+00 3.2464473675948318e+00
1386 -2.9830671356673899e+00 6.4058538704672259e+00 -3.1656924576624017e+00
1387 9.7104563343077183e-02 1.8657492734850714e+00 2.9377206373540070e+00
1388 1.9204726257283795e+00 -1.2407672424417473e+00 2.4521368151289415e+00
1389 -2.5163050232729041e+00 -1.7838219487584162e+00 1.5226236413094092e+00
1390 4.0535050770737451e+00 -6.1268374853677654e-01 -2.3907386124240273e+00
1391 4.0338502510877436e+00 -4.2173354314401470e+00 6.1292123054528957e+00
1392 -2.6424516835597776e+00 1.7210701115283999e+00 2.4883445443633057e+00
1393 2.6176089877472917e+00 7.5691511871459560e-01 1.6515079746120648e-01
1394 -4.4391082684136425e+00 -2.0966512168424059e+00 1.9458106483769173e+00
1395 2.2119309128829405e+00 -3.4607001038205687e+00 1.1569630589574917e+00
1396 6.7675177901220496e-01 4.7015545515447634e+00 -1.1234877535349039e+00
1397 -1.7334064040706016e+00 -3.0791181603154754e+00 -3.3319832325861398e+00
1398 1.0068086156533815e+00 -1.8912917080937648e+00 2.8857869893745529e+00
1399 -2.0916591472277237e+00 5.1149384459831646e+00 1.3928592101887787e+00
1400 6.9380983589322720e-01 -3.0891224165697677e+00 8.8373502105547752e-01
1401 1.5178798194847626e-01 2.1076093376975447e+00 -1.7033636587938918e+00
1402 -3.9032763800940260e+00 7.3902303724582519e-01 3.7535569898019816e-01
1403 8.1323202648866699e-01 3.3532289317433017e+00 -3.1331274760321537e+00
1404 -6.3954581611748686e+00 1.2755390546038492e+00 1.0899533494173625e+00
1405 -1.5906913422107889e+00 5.6884078234379332e-01 -3.4937089023515573e+00
1406 -5.6555454475768911e+00 -4.5457935185434248e+00 1.1374782495252196e-01
1407 4.6104945239508952e+00 -1.2988058649480332e+00 2.7139856889139975e+00
1408 -1.5958958906968430e+00 -1.4886446135042214e-01 2.1389190669692599e+00
1409 4.4407355613096583e-01 -1.8061663770703018e+00 -2.8852547618838491e+00
1410 -2.4845584862834152e-01 3.1741719489688687e+00 -4.2175103007549133e+00
1411 2.8653431173238753e+00 9.4578943865439513e-01 -3.2313973713042721e+00
1412 -4.9337003910911122e-02 -5.4787449880488404e-01 -2.5448655404077281e+00
1413 -1.7986865459303716e+00 -4.1889506716784988e+00 -6.9072656528855676e+00
1414 4.0609898334476990e-01 2.8046554808024546e+00 4.3858570296120494e+00
1415 -3.7057685066258235e+00 7.1601509823250433e+00 5.0893005215588101e+00
1416 3.8223048168180962e+00 -2.1096656877558866e+00 -1.5097539776951168e+00
1417 -6.4632378298953101e+00 6.3739927370259031e-01 -1.3124252959541314e+00
1418 4.3443917979712893e-01 -2.2408417638314146e+00 1.8067868911969496e+00
1419 1.1443226890748619e+00 -3.8149515163759222e+00 -1.5300826494947417e-01
1420 7.6443275319885862e-01 5.3930526710693067e+00 2.5719003457532341e-01
1421 -3.1356895017683195e+00 -1.0545440699102624e+00 -1.0411118400741359e-01
1422 -3.5872909818919424e-01 -4.9447069448608634e+00 -8.9034786940704125e-01
1423 -2.3117616153567617e+00 -8.6865157615524224e-01 7.0721139081214357e+00
1424 -2.2348606905494197e+00 3.8611487344595758e+00 3.1164834067911560e+00
1425 2.2790476717349248e+00 1.0371345087585320e-02 2.1820022842433229e+00
1426 -1.2081213188143030e+00 -1.4673480884614145e+00 -2.0081527272034574e+00
1427 9.1329447703024746e-01 -6.9945674028217408e-01 -7.9886983057969441e-01
1428 3.8135880868689118e+00 -1.8923855823167082e+00 1.9745964729058458e+00
1429 -1.7403097532114642e+00 -5.3089977256297720e+00 -4.7546736184627836e+00
1430 -1.3199128588487328e+00 1.6906281966683989e+00 1.7233201620883554e+00
1431 -8.0254461636845253e-01 2.0620586000245478e+00 2.5429088232925084e-01
1432 -7.0215190492552326e-01 2.2951181852611100e+00 3.1897240686288475e+00
1433 3.3878306546633548e+00 -1.0232338536321901e+00 1.8929581215569355e+00
1434 -5.7174350036231552e+00 5.2379228334035932e-01 9.6936092900966098e-01
1435 5.0674444559424081e-01 -7.4114376612568955e-01 4.3506214792715401e+00
1436 -2.5036119645630567e-01 -3.7468625032260933e-01 -6.4696160081790310e-01
1437 3.4481096963754378e+00 -9.7517417930217720e-01 -2.7820454312104501e+00
1438 -2.9203764555696676e-01 4.5855405724146650e+00 -8.0740017051294999e-01
1439 2.0532222201204280e+00 -9.2732941376901801e-01 -9.2278156009684742e-01
1440 -1.5059672079721653e+00 -3.2660108210757732e+00 -2.9478483080597145e-01
1441 2.3956110241791779e+00 5.2556406240039797e+00 1.4733648282253582e+00
1442 -2.1934294312219298e+00 2.0018235339766699e+00 1.2191558381410041e+00
1443 4.6626869699859155e+00 6.9675743102011891e+00 4.0499748495768770e+00
1444 -1.0546314610761678e+00 -4.2756201359771423e-01 3.1092934946213671e+00
1445 -1.6928464543548307e+00 -4.6842653136218154e-01 2.1151371790469136e+00
1446 2.8747835975115432e+00 5.9855837758596520e-01 -7.7669732056221656e+00
1447 1.1315781706984311e+00 -1.0404934329626869e+00 -3.2541003271025146e+00
1448 6.4794146709888506e-02 3.0086621926071091e+00 -3.0339381253675217e+00
1449 5.3014218790232901e+00 3.2634669714845610e+00 3.1148650013716992e+00
1450 -2.1876495965542482e+00 -6.7463439334421482e-01 -1.0279854153413417e+00
1451 1.1368864147689661e-03 -2.0741500876648059e-01 -1.0581646464392573e+00
1452 -4.7776921677805972e-01 -5.6824133722504400e-01 7.1824572523631880e-01
1453 -5.5078007041655752e+00 1.6224415385465212e+00 5.6593642365952945e+00
1454 2.8798714810890127e+00 -2.5399163584948963e+00 2.8049738739313974e+00
1455 7.6345101355645788e+00 -8.0877694578732973e-01 2.4042009730653828e+00
1456 6.1742795400555099e+00 2.7665423318894260e+00 4.1639836890112321e+00
1457 -3.6519081451465158e+00 7.8565161856406529e-01 1.3069775000878501e+00
1458 1.5152196988113609e+00 2.1199799261295666e+00 4.1936012880511481e-01
1459 -4.3760326910142293e+00 3.5553671080233147e+00 1.2632677471011240e+00
1460 -3.1648128086036498e+00 2.0380500623404614e+00 1.4848579108773596e+00
1461 1.7906821375868718e+00 -9.5642018929511652e-01 5.4497443536952250e+00
1462 1.5338535983877508e+00 -2.1211789015697411e+00 -4.1426024101914933e+00
1463 -2.5585840599439797e+00 -7.9012460604241852e+00 -8.6880790170368816e-01
1464 3.4627453509785633e-01 -3.2428171342088561e+00 -1.4646211662845094e+00
1465 5.1792487248378443e+00 3.5775105924840200e-01 5.1194327651114477e+00
1466 -4.9663020102039751e-01 -4.7469565711570116e-01 -5.9054209801787323e+00
1467 2.4317324433109433e+00 3.6696893903055781e+00 -1.1415882707418423e+00
1468 -8.3322665082526226e-01 2.1831593737223725e+00 -1.9770995949968873e+00
1469 -2.6085736754058146e+00 1.0573286662259027e+00 -2.0214778814975807e+00
1470 1.6408081896740825e+00 -2.4712084223095259e+00 4.0533223798049773e+00
1471 2.1889053478220193e+00 2.1957345326152955e-01 -2.9130244512621029e+00
1472 -2.8402730850687337e+00 -2.4092543544220764e+00 -3.8457418907893230e+00
1473 4.4695162303348983e+00 1.1406106119336095e+00 3.5698914261705403e+00
1474 4.6697247949519811e+00 3.5084889988687404e+00 1.2073077410847017e+00
1475 -1.3706021226870926e+00 2.4984562625647944e+00 7.0401547417901933e-01
1476 -6.9989854880460134e-01 -1.3834069216551990e+00 2.8979050451253601e+00
1477 4.9264357990833840e+00 -9.1731952761430269e-01 -1.4571537506349344e+00
1478 1.8747203087517197e+00 -1.7055710494196752e+00 1.6209882528009230e+00
1479 5.7915991307422132e+00 -1.3932225858148612e+00 8.1736654062578656e-02
1480 5.3427093923218614e+00 -1.0020288421464294e+00 3.7871080661740342e-01
1481 -3.1403792441871188e+00 -2.3435240108899689e+00 -4.5975789581546476e+00
1482 7.8548589248841170e+00 1.5352642917843067e+00 -1.2318469133584342e-01
1483 -3.5246636426251712e+00 -6.0842366455404671e+00 8.0604951150836801e-01
1484 -3.8976060984603156e-01 1.3479470529280995e+00 1.8590363728075157e+00
1485 3.3753188602834974e+00 -1.4063490455790870e-01 2.0740249085752196e+00
1486 -1.0943130498167333e+00 -2.2862976819614080e+00 -9.0808725561548875e-01
1487 2.5640376456024430e+00 2.0222992100345918e+00 -4.2057124210060227e-02
1488 8.6578057831898092e-01 4.3164697192846244e+00 -4.8398185249282086e+00
1489 -4.1848847031833269e+00 -4.3459625202696667e-02 2.3352638653162634e+00
1490 -5.7805012496274133e-01 2.4249665561242684e+00 -8.0755485258387019e+00
1491 -7.7706846022850335e+00 -1.8932770886218493e+00 8.8938896769996632e+00
1492 -1.8353982884464042e-04 -6.0187224793776419e+00 -9.6674922218429260e-01
1493 2.0589648628389363e+00 3.2084238116203765e+00 1.5689931565592410e+00
1494 -6.3317973866903465e-01 1.8226800799457830e+00 3.0976867548762717e+00
1495 -1.8496950165251784e+00 -4.1213303061736278e-01 -4.5380270631418762e-01
1496 -4.5797100751603583e+00 -3.3755461828461075e+00 -6.2259549675275379e+00
1497 2.8121545772340117e-01 -9.9255844530466242e-01 -1.1304675224014116e+00
1498 -9.2380697324083064e-02 1.3943378516139728e+00 -1.8060152460919718e+00
1499 3.9132764689436352e+00 -5.3091126349770281e+00 -4.5511746253819221e-02
1500 -2.6407659559881996e-01 2.2820837453582117e+00 -1.3291320310970371e+00
1501 3.5635645159072697e+00 -7.7980160844829061e-01 -3.3945783731869966e-01
1502 -4.0030091400501772e-01 1.8745229571024569e+00 2.2908672512190540e+00
1503 -2.0164411139159686e+00 -4.6977906548627937e+00 -3.2713745268176253e+00
1504 4.4354837378678691e-01 -4.4697330254126234e-02 3.7843138322065534e-01
1505 -2.4180060400081183e+00 2.6533094935954207e+00 -5.8831474732107569e-01
1506 -4.3860865289926831e+00 4.1714409980761702e-01 1.4699443124782940e+00
1507 4.7935281352879244e-01 4.3420741259637574e-01 7.5747967693605411e-01
1508 -2.8294657971983237e+00 4.1130520896912488e+00 -8.7669819838860530e-01
1509 4.8910325355233457e+00 -1.8476812511910039e+00 3.2232718183314160e+00
1510 6.4492864733858768e-01 2.6936358819427370e-01 -2.5208359976764227e+00
1511 4.0206682409845627e+00 1.3970157023651504e+00 -3.0092884884407034e-01
1512 3.2420345402799016e+00 2.3785490231443332e-01 5.9337539093481437e+00
1513 3.3899970984606549e+00 -1.1027127348692356e+00 4.5293737491647406e+00
1514 1.6341112148100323e-01 5.3862051185575197e+00 2.1926844337868162e-01
1515 -2.6411484484972825e-01 3.1332687366212530e-01 1.3321107260825058e+00
1516 4.1601993375124753e+00 7.8637727507050326e-01 -2.8655014110873012e-01
1517 -1.6453877113996660e+00 2.6197671420968160e+00 -1.8484023565077627e+00
1518 -3.1385346864674424e+00 -2.5301132940529150e+00 -1.2484202245887259e+00
1519 -4.1491261064761814e-01 3.5116854613226010e+00 -1.9247546021369257e+00
1520 3.2145206208401214e+00 -4.3975570207700843e+00 7.0744162947261282e+00
1521 -5.2897546309312489e+00 6.6049926034187767e-01 -7.2549643654369933e-01
1522 -2.1087213840833976e+00 1.8162876841687692e+00 2.8388237907484006e+00
1523 -5.7413548750039300e-01 4.0325598580163904e+00 2.1359326944851437e-01
1524 -2.8564542360415048e+00 -2.1263371512140583e-01 -1.4164286037992764e+00
1525 1.5345351142402368e+00 -1.3309777312901836e+00 -2.4735563735397104e-01
1526 -2.9143939164118327e+00 2.8714282170219056e+00 -9.5493085826827284e-01
1527 -3.5660528119438437e+00 8.7743592069471621e+00 -4.7114063391374605e+00
1528 1.3625481695616366e+00 -5.8098590406993749e+00 8.2844304525076551e-01
1529 6.2724366913418361e-01 -8.4152634574450780e-01 -4.5465862743971623e+00
1530 -2.3053210548412899e+00 -2.1657711302832166e+00 -3.1527482365558104e+00
1531 -3.1611537221397445e+00 4.7852681170593501e+00 1.3044430627320918e+00
1532 3.5735287353497327e+00 -2.6552316308389736e+00 -1.1581323195099713e+00
1533 -5.7919990859427042e+00 -3.9694426078084684e+00 -9.7068450410190210e-01
1534 -1.1294091221192113e+00 4.7725374417113446e+00 2.9012587389472161e-01
1535 -8.8394616053935948e-01 1.5320270550348485e+00 8.9623553062637723e-02
1536 -2.9153232464891423e+00 -1.6833144143940302e+00 3.7564688547846532e+00
1537 4.3473354878776931e+00 8.5772263943830740e-01 3.3993604354409248e+00
1538 4.4112594176295197e+00 -1.1861186723548240e+00 4.9492086838148491e-01
1539 7.3720309507381154e-01 -2.7569180208768644e+00 1.4885767508037211e+00
1540 -3.0709959054381564e+00 2.7458776904283855e-01 -7.2208562812691213e-01
1541 1.4322772209685524e+00 -4.5176344508903368e+00 -1.7375484063996702e+00
1542 5.0566586812806271e+00 -3.6208763591158716e-01 1.8298019832902096e-01
1543 -2.2326115219620255e+00 1.5128432352091820e-01 1.2663055685832112e+00
1544 -1.2769809489359039e+00 -6.6994565264814521e-01 -4.4697644840126288e-01
1545 9.8610369007077148e-01 3.7695846704119260e+00 -2.2317923083418032e+00
1546 2.1642134124120389e+00 2.1605214431947841e+00 6.8427396180694078e-01
1547 3.6066478049448958e+00 3.3033246918480197e-01 3.5950145139619621e-01
1548 -4.6602177493357339e-01 -7.2597888825734347e-01 -5.6522810004143864e-01
1549 -6.2047018240225409e+00 2.0015459265049733e+00 -1.0745282348637213e+00
1550 -3.9441879775928341e+00 2.6055015486102726e+00 -2.6195189278870501e+00
1551 2.8658812021028943e+00 -2.4726361451482002e+00 3.1973043161464778e+00
1552 5.0989689308614130e+00 -4.2830506096983205e+00 -6.8462266919804837e-01
1553 3.1903720037735819e+00 9.3259218309846681e-01 9.3928578117173878e-01
1554 2.4585716985150574e+00 -2.1182418288690554e+00 -3.4452283709625982e+00
1555 -2.3801196703590151e+00 4.4465817825842500e+00 -2.5471613360247836e+00
1556 -4.1216583363294372e+00 3.1061799386437974e+00 -1.3753058039052539e+00
1557 -1.4971699067491870e+00 -4.6477127777142249e+00 1.7685224166549025e+00
1558 1.5250982380077067e+00 -1.4780800638933604e+00 -3.2054017046666861e+00
1559 -6.3089976599331790e+00 1.8941273752589958e+00 8.6577255419087518e+00
1560 1.0856849427658322e+00 1.6334616328029079e+00 3.9354511700501354e-01
1561 1.1656244164391116e+00 -7.7696753358787329e-01 9.8093940520875755e-01
1562 -2.1508577714415607e+00 -3.3315005853859225e+00 2.9869723550184740e-01
1563 3.2731111379910421e-01 -3.9159813803651815e+00 -1.8386869051898100e+00
1564 -9.4001355094398209e-01 1.9220166074889025e+00 4.2605294934810833e-01
1565 -5.5887721903402521e-01 -5.3090672777254992e+00 9.0165401887492991e-01
1566 1.4210019666759874e+00 5.9023557007175231e+00 1.1984912987148670e+00
1567 3.0813446233989947e+00 3.1131875330922254e+00 -6.0442543591670246e+00
1568 -3.3462339432246507e-01 -4.5553043907525398e-01 -1.2351068258704920e+00
1569 2.8560169433769822e+00 5.4241200116079904e+00 -3.0825414297349338e+00
1570 -4.1887447957608337e-01 1.1412002354515571e+00 -2.0932457738355841e+00
1571 -7.0573551391291032e+00 -7.1710380696592824e-01 -3.6814680173175276e+00
1572 -5.2051358976852020e+00 2.4217673530559338e+00 4.3915824753567740e+00
1573 1.7636459093017824e+00 1.3869855810822691e+00 1.4474016688954370e+00
1574 -2.0839234411960625e-01 1.2061053125447414e+00 -3.5257092777954024e-01
1575 -2.5039094126679196e+00 4.2601881760140090e+00 2.4966623524442304e+00
1576 7.1352902806478591e+00 -2.1981183060924265e+00 -3.8805093959143284e+00
1577 4.4739605485121503e+00 -3.5074290649079048e-01 4.5240565895489251e+00
1578 5.4080160051007793e+00 -3.6857751567288290e+00 -2.3023605111248835e+00
1579 -5.6060698686167312e+00 -5.0215450974290587e-01 -2.4043079252223776e+00
1580 -5.2116433914704174e+00 2.6826433998039684e-01 3.4419779066068803e+00
1581 -3.2346221740465642e+00 4.1525699814072228e+00 2.3236403080592587e+00
1582 -1.7333461219479568e-01 -2.8405051531396417e+00 -1.2599522464177169e+00
1583 7.0968986796182545e+00 -1.2978802602068713e+00 1.8993111645567766e+00
1584 -7.3654692580114545e-01 -2.9494609638195772e+00 1.8520334462232269e+00
1585 5.4992353470823812e+00 3.5515666599067561e+00 5.3651820155141161e+00
1586 3.8402733449042403e-01 -6.8662934616443077e-03 1.4169237826278804e+00
1587 -7.4230589786943779e-01 -1.6388022893413188e+00 -5.3144810709929011e+00
1588 2.7345280368280718e+00 1.3341438076237314e-01 -4.3012726322399377e+00
1589 -6.0632888242107992e+00 5.9073926671742525e+00 3.5864798544517229e+00
1590 1.0295104143161078e+00 -3.9391709185581409e+00 -7.1099006520763663e-01
1591 -3.4413529993365026e+00 -1.2151683571564464e+00 -7.2314300317926172e-01
1592 -1.9475220816170480e+00 -3.7425395998298199e+00 1.9835661510508842e+00
1593 8.3141970213594685e-01 1.8290850660938318e+00 3.7841921760148489e+00
1594 2.9616263513690595e+00 4.4660937368295652e+00 2.4861291813172710e+00
1595 1.5308712027454918e+00 -1.3749201647549012e+00 -4.3004661396949269e+00
1596 1.5849591984704796e+00 -7.8423903301854958e-01 5.3640115978649412e+00
1597 -1.6823759304695691e+00 9.3389069448638640e-01 9.4918104532233971e-01
1598 -3.9559169096668083e+00 -2.0544333555104877e+00 -5.3345657324630809e+00
1599 9.1530187720523326e-01 6.2246629130188225e-01 2.4799951052425251e+00
1600 -1.9472714327834131e+00 -2.8450303719126140e+00 -8.6453183484062557e-01
1601 1.3779562019056228e+00 -3.6111238121617788e+00 1.2732320525554313e+00
1602 1.3164240227960500e+00 2.2027078994512372e+00 -9.5986421579394410e-01
1603 2.9055116291226007e-01 4.0963033214637337e+00 -2.3339673979599742e+00
1604 -1.0269149803766438e-01 5.3865675116365859e+00 8.1642389938222093e-01
1605 3.1452416601444502e+00 1.0019118056145113e+00 3.3575091617885842e+00
1606 1.3014599869575720e+00 -5.8918449472522516e-01 -6.4520987867716617e-01
1607 -7.6163987689874624e-01 2.1933224004420020e+00 8.1266056396401581e-02
1608 -4.4945530230720517e-02 2.1601080006773593e-01 7.3708293137470859e-01
1609 5.2124758190898550e+00 -3.0895772368828918e+00 3.5963763308923768e+00
1610 -1.1444836860510097e+00 -8.9967874386736124e-01 -3.9819413483308297e-01
1611 -4.5167121759232813e+00 -2.1168179999656567e+00 -4.5305033785170745e-01
1612 -1.6024446718250276e+00 3.4829141397210766e+00 -2.2129942569847478e+00
1613 -5.5768514362962329e-01 -2.0140813317316839e+00 4.1722955049100756e+00
1614 -3.6058556869363110e+00 1.1150284107235677e+00 3.2138259383743195e+00
1615 4.6938322919193975e+00 5.8981095505313064e-01 5.7629310732818384e+00
1616 -2.5554537629120087e+00 -1.4810897131353862e+00 -1.4476395886208915e+00
1617 8.5784281469784684e-01 -7.0486716300812571e+00 3.1627778287630681e+00
1618 3.3062135996927107e+00 -7.7383638041291547e-01 3.3785012716953617e+00
1619 1.9131264091150424e+00 -3.2572801467995016e+00 -2.3041613065549695e+00
1620 -1.3621753110757147e+00 8.8276537094465923e-01 2.5256580840743248e+00
1621 2.2407328563874276e+00 -2.0682401385252214e+00 3.7628458625922223e-01
1622 -1.6465704214255041e+00 4.2487017407594863e+00 -1.0322903814287925e+00
1623 -2.2465446033051145e-01 -9.4499924297985316e-01 -3.9996595597993423e+00
1624 -2.1222334142512855e-01 2.2068874249048207e+00 -4.5849738920454486e-01
1625 -5.5051788470529717e+00 -6.9563913658661314e-01 -2.3705741530378077e+00
1626 1.4056139146236690e-01 2.5921767676908569e+00 -1.8801947189670252e+00
1627 -5.1852266144614545e-01 1.5458700207390577e-01 -4.7604253202584079e+00
1628 9.4769532932857592e-01 -7.8987259961072465e-01 -2.5678820249176848e+00
1629 -4.4873317018127219e+00 -1.4170523370992411e-01 2.7358731309372639e+00
1630 1.3184166695828792e+00 -3.1632706852776811e+00 -9.1586341476824717e-01
1631 1.5294180088181664e+00 3.9772881344792750e+00 5.0269767664093559e+00
1632 5.7981344601204565e-01 2.8898052878412614e+00 -3.7575404834050024e+00
1633 1.6959461024919913e+00 5.3097669077445069e+00 -1.3818602482410283e-01
1634 3.6946683294334592e+00 3.6400583545319480e+00 1.6791186253057433e+00
1635 5.5867747798621492e+00 -9.6762681375939230e-01 -7.6355981410400486e-01
1636 4.0939695161306418e+00 1.0450631578026468e+00 -3.3375450164144973e+00
1637 9.0358531499880976e-02 9.9364000403852728e+00 -7.8985123926404164e+00
1638 3.5503461450017517e+00 -1.3658910897331495e+00 1.4189599323767683e+00
1639 2.7515936371570544e+00 -4.4961956213412426e+00 -5.1953921474761700e+00
1640 -2.3357564544285099e+00 -2.6271478048880031e-01 -4.5178398571938265e+00
1641 2.1882247131985881e+00 1.9747308656007878e+00 9.9476525391817439e-01
1642 6.0359013460086475e-01 -3.5414413781072769e+00 -8.4826429535302272e-01
1643 1.3896905102185261e-01 2.5792079819729481e+00 4.3674397025596901e-01
1644 4.4766438178937493e+00 1.6767614036914784e+00 1.4650783370343115e-01
1645 1.5084756847780272e+00 5.3843594316041647e+00 -3.7573258561271792e+00
1646 -9.6689525839718216e-01 -9.3898779757562412e-01 -1.8011158933628941e+00
1647 -3.1896099466486607e+00 1.9937619659391723e+00 -1.5230635560587993e+00
1648 1.6409103929569806e+00 -1.2364069721683486e+00 -3.3887648126733843e+00
1649 3.9947557637930688e+00 5.9966056282074227e+00 7.4916672414082641e-01
1650 1.4045849150552292e+00 4.6635542449171865e+00 1.3658326502162759e+00
1651 3.8846928203440361e+00 2.3778206044554882e+00 4.4013165894675064e+00
1652 8.3538874646430850e-01 8.0269105315646994e-01 1.6344035089446680e+00
1653 -4.4999126476637707e+00 -2.9119764734593705e+00 4.5382430841814196e+00
1654 3.8147318398330845e+00 1.1556375764861195e+00 -2.5562811334826927e+00
1655 4.0104960341775806e+00 2.6650526620396564e-01 -3.9021060197233721e+00
1656 1.6635918893652928e+00 2.3965049891734611e+00 2.3525370031315607e+00
1657 -1.0322632165467909e+00 -1.7325627068181944e+00 -4.3576185499058679e+00
1658 4.0804157974073121e+00 5.7157384989556137e-01 4.2063487257683239e+00
1659 -8.6329134459704848e-01 5.7067702116731285e+00 -6.0713096721997761e+00
1660 4.3901428849918400e-01 -2.1833759206585364e+00 -1.6254937180272546e+00
1661 -4.4264808935293312e+00 -2.1479188056221696e+00 6.3649601035131962e+00
1662 -1.5132277702357126e+00 2.9066474354444476e+00 -5.2412567713001481e+00
1663 8.1399645318997838e+00 -5.7635201763507310e-02 3.0419032412113931e+00
1664 3.3287219883451500e+00 -1.5396019772492844e+00 1.1409101623994991e+00
1665 -9.0448643578070131e-01 -2.2792801650695313e+00 -5.1264151955012487e+00
1666 -2.7220987720560352e-01 2.0049413582701878e+00 2.4950322441466688e+00
1667 7.6496890210252566e-01 1.3817904348263099e+00 1.0327397432642571e+00
1668 -1.9802120125834655e+00 -4.1269261013853944e+00 -1.5097625812771041e+00
1669 -5.3333924414572547e+00 2.7488367909768243e+00 8.3075844145176490e+00
1670 2.7170261317963984e+00 -7.5517807116360947e-01 4.4860192806369652e-02
1671 3.8476171574011215e+00 -2.0036845424154510e+00 4.4326457329538693e-01
1672 -5.8267995627286737e+00 -2.9981757809505005e+00 -1.5288628310987813e+00
1673 2.1215607441931730e+00 -2.5596412175050975e+00 2.0622512425986401e+00
1674 4.9182317729980157e-01 4.9927165260373734e+00 -2.8879640817603347e+00
1675 -6.7328641774145837e+00 -8.1274548991742357e+00 -4.9536854677524328e-01
1676 3.0910635391137475e+00 4.9762900232630991e-01 1.7680944938142058e+00
1677 -1.6517263780040639e-01 7.9158013420947948e-01 -5.0401969405833267e+00
1678 5.1887867744215228e+00 1.2953961399164453e+00 -3.5331310811245391e+00
1679 -6.5474566450765774e+00 1.7774567372950758e+00 -3.6452614215677837e-01
1680 -7.6040205997856802e-01 3.8498785544445964e+00 -1.5268468815530085e+00
1681 -2.8337187758190288e+00 2.4155864962922817e+00 2.0203008421196649e+00
1682 -3.4645926963753038e+00 2.1197800405464768e+00 5.2654313359555056e+00
1683 -1.1188202787457280e+00 -2.0260154427227537e+00 -2.4249073950982956e+00
1684 2.2861963765073945e+00 2.3855697448449975e+00 -2.9841172796363398e+00
1685 3.7940158387837335e+00 4.2531776030840946e+00 9.8230906499336945e-01
1686 -5.8689707807667437e+00 2.1276861784465835e+00 -4.3635494191482351e+00
1687 2.4668834752346291e+00 3.3819678485176952e+00 3.1950386370683423e+00
1688 -7.0227750035270953e+00 -1.9551716072385905e+00 1.9937514882419709e+00
1689 -2.7389992455441375e-01 -5.0846161709957771e+00 -1.4610594494448113e+00
1690 -1.4477643215259673e-02 -4.5972778295476120e+00 4.5798279446657419e+00
1691 2.7048226296240379e+00 4.9802739686332365e-01 -2.4522954017961540e+00
1692 -8.4037544481620507e-01 -1.7545484702784697e+00 -2.6616321455812724e+00
1693 4.9671187481876822e-01 3.6789101793463881e+00 -6.3369664086460953e-01
1694 -1.1070079763698217e+00 4.7962965982549710e-01 2.0989645513700306e+00
1695 -1.7493552353350676e+00 -4.6051137639704480e+00 3.1525854727783358e+00
1696 -3.6564029922407406e+00 1.4365449001365627e+00 -2.5766920804783955e-01
1697 -2.9889693342980976e+00 4.6254026475356484e+00 3.3256965442252637e+00
1698 1.5479267106337500e+00 1.1814870539445252e+00 1.2767288692363821e+00
1699 -3.2796295391666885e+00 -1.8739057022911234e+00 -5.4717432341713774e+00
1700 7.8483548144021797e-01 3.8481628388907030e+00 -1.0303387981949375e+00
1701 7.9189270917565857e-01 -1.7764130159826328e+00 -1.5710969281652123e+00
1702 -9.1319250631401638e-01 -3.9289892157867170e+00 3.0573557618479970e+00
1703 -1.6754737431087383e-02 3.2396514190871963e+00 1.0081232781763587e+00
1704 -2.1648982594009922e+00 -8.5096965949999992e-01 -4.2610389103814876e+00
1705 2.6297896098826814e+00 4.5756079037976616e-01 -2.6180973782652810e+00
1706 -4.0454313810653355e+00 -1.5477715042438263e+00 -2.9732828239855742e+00
1707 4.5108459724687644e-01 -3.5103701990171938e+00 6.8431448090708091e+00
1708 2.6457443500432452e+00 -1.0011475751883796e+00 -3.9908295766203730e+00
1709 -3.7232247722805906e-01 -6.5341200642510699e+00 3.5367906721468620e+00
1710 2.1247874985089616e+00 3.8898903406554779e+00 -1.4947246419062443e+00
1711 2.6860649792584059e+00 4.6149310441453402e+00 -1.4526756107511487e+00
1712 -1.9705067550911763e+00 3.6199437385205768e+00 3.9063224298162857e-01
1713 1.4181086281276509e+00 -2.9355902207775508e-01 -4.1628963325031005e+00
1714 2.9660564326628265e+00 -5.4492923323888194e+00 2.6797576838735577e+00
1715 -9.3108970326436757e-01 -6.2563959962264937e-01 -1.7756982162238748e+00
1716 1.4146949800746589e+00 1.0975591543432903e+00 4.3271840374827466e+00
1717 -6.1376846717198741e-01 -6.0706258239597854e-01 -1.1796907914981678e+00
1718 2.7907504997115395e-01 -1.2055992547261725e+00 3.1021129007296646e+00
1719 4.5694472854000034e+00 -6.4099832844812097e+00 -4.2975631210242389e+00
1720 -2.7356301404338699e+00 1.7765673634634518e+00 -2.3952953806252260e+00
1721 1.8402139682171978e+00 4.5725476871408475e+00 2.5704319997006366e+00
1722 -2.8055383823457754e+00 -3.2219747448828810e+00 -7.1642589439357645e+00
1723 1.6338909177745256e+00 -4.1847882687818760e+00 1.4135930756212767e-01
1724 6.1971076165592875e-01 -3.5169967194955958e+00 2.5331913193360562e+00
1725 -3.4543159499769791e+00 -1.9811471550065549e+00 -3.9421672254536562e+00
1726 1.3168090049627787e-01 -1.7846963588132780e+00 6.0955453726148123e+00
1727 -2.1459930130652847e+00 6.2144283887435470e-01 -9.3467847336352872e-01
1728 2.3808492344107095e+00 1.0496474025569301e-02 -3.9251377345582030e+00
