Al 3x3x3 fcc a=4.0905 (4.05*1.01) rattle d=0.10 A seed=0

108 atoms
1 atom types

0.0 12.2714999999999979 xlo xhi
0.0 12.2714999999999979 ylo yhi
0.0 12.2714999999999979 zlo zhi

Masses

1 26.98153850

Atoms # atomic

1 1 2.7392337464290876e-02 1.2225457342752772e+01 1.2179694704787238e+01
2 1 1.2174805527105704e+01 2.1079040478400541e+00 2.1278011154555441e+00
3 1 2.0665771551534355e+00 4.5899312196799685e-02 2.0539749982930844e+00
4 1 2.1322644847575534e+00 2.1084207108243063e+00 1.2172047700034028e+01
5 1 7.1480855317513886e-02 1.2178217115061091e+01 4.1364310892859883e+00
6 1 1.2206631124120511e+01 2.1178857844699772e+00 6.1440422440498184e+00
7 1 2.0051923781074770e+00 1.2256037444239531e+01 6.0414139342290927e+00
8 1 1.9701066552999125e+00 2.0793748829387257e+00 4.1199379023148497e+00
9 1 2.3077022296250777e-02 1.2248235510852375e+01 8.2804419871578414e+00
10 1 9.6167067755246041e-02 2.0823583968961388e+00 1.0256341855253563e+01
11 1 2.0829393461141876e+00 1.2249284284795818e+01 1.0153269301004482e+01
12 1 2.0895476680388163e+00 2.0503208644951449e+00 8.1430483751117908e+00
13 1 1.2268667071766357e+01 4.1683975668697997e+00 8.6808703191249961e-02
14 1 1.2243059039341812e+01 6.1500559661459500e+00 2.0096238782151881e+00
15 1 2.0641100060399391e+00 4.0580822451014260e+00 2.0235738001056323e+00
16 1 2.1233048704009581e+00 6.0811815187066749e+00 2.4637428937208480e-02
17 1 1.2188303068716476e+01 4.1570288295306792e+00 4.1479196614977365e+00
18 1 1.2219373888598588e+01 6.2110468461621400e+00 6.0474636069610384e+00
19 1 2.0124734121091317e+00 4.0205558933789671e+00 6.1258178733298561e+00
20 1 2.1045148540574585e+00 6.0818784417987484e+00 4.0009042602128817e+00
21 1 1.2252410367964304e+01 4.0302026089018508e+00 8.0991506091238232e+00
22 1 1.6066477197370130e-02 6.0954892265637834e+00 1.0260648975591272e+01
23 1 1.9851530887936426e+00 4.1789226221012994e+00 1.0199272033648967e+01
24 1 1.9663490559140457e+00 6.1615716303079404e+00 8.2664309106135718e+00
25 1 1.2259575430943155e+01 8.2719180987381460e+00 1.2271479162737528e+01
26 1 1.2256545724969813e+01 1.0250292690403075e+01 2.1442693010470646e+00
27 1 2.1350387349875528e+00 8.1730090278618182e+00 2.0967957690616581e+00
28 1 2.0447345390975236e+00 1.0232112432039354e+01 5.7157140142761492e-02
29 1 1.2254431169871133e+01 8.2278967143577457e+00 4.1327285755979499e+00
30 1 8.6411937322675658e-02 1.0149236526656182e+01 6.1815530234152609e+00
31 1 2.1307347857249117e+00 8.2745852379849296e+00 6.0386912609930725e+00
32 1 2.1179780180491150e+00 1.0322489008013269e+01 4.1819420359221926e+00
33 1 1.2201252802446499e+01 8.2755257627645893e+00 8.2589871111441031e+00
34 1 6.4474765508614085e-02 1.0222247584761567e+01 1.0172724583927861e+01
35 1 2.1056261157436613e+00 8.2657060319566931e+00 1.0179476054458458e+01
36 1 2.0530368815244375e+00 1.0214800565794906e+01 8.2672034631962301e+00
37 1 3.9986021422376865e+00 4.6401239131312166e-02 2.2874649389799329e-02
38 1 3.9961730730227036e+00 2.0890939545653477e+00 1.9484483459047142e+00
39 1 6.1873402004712856e+00 2.5517446524156162e-03 2.1310708441594008e+00
40 1 6.0489664993448136e+00 2.1135134559224764e+00 1.2184838001753420e+01
41 1 4.0593619957608249e+00 1.2257559746389566e+01 4.1837124161568138e+00
42 1 4.1029463684456910e+00 1.9970229186341866e+00 6.0840851428188687e+00
43 1 6.2133736641318347e+00 1.2216673885683463e+01 6.0606609411670558e+00
44 1 6.0934161514015148e+00 2.0624746129625464e+00 4.1013181004346535e+00
45 1 4.1524421551825554e+00 1.2095190401237160e-02 8.1386842428862405e+00
46 1 4.0730792685361781e+00 2.1088741941941818e+00 1.0251551292483953e+01
47 1 6.2275655285394871e+00 1.2245380882218335e+01 1.0236772302104258e+01
48 1 6.1545348403226328e+00 2.1149082416550118e+00 8.1100947076373053e+00
49 1 4.0718020673496245e+00 4.1724917923324591e+00 1.2180113377713639e+01
50 1 4.1550412560363004e+00 6.1188268074742442e+00 2.1112107970556204e+00
51 1 6.0377409121614578e+00 4.0635092315516541e+00 1.9609760074331277e+00
52 1 6.1662729152673279e+00 6.0905198197199102e+00 4.0530414131957265e-02
53 1 4.1792602853884180e+00 4.0158634204522494e+00 4.1634556590801548e+00
54 1 4.0023928303200673e+00 6.1119041016621773e+00 6.1217048122357145e+00
55 1 6.1335199093666919e+00 4.1857924643872089e+00 6.1908882376203653e+00
56 1 6.0975214725438516e+00 6.0897173571001586e+00 4.1631240408378627e+00
57 1 4.1667614345475377e+00 4.0926413011087295e+00 8.1498591461924654e+00
58 1 4.1894834696321830e+00 6.0989387090735390e+00 1.0162792475785313e+01
59 1 6.2117696242608131e+00 4.1529670796222504e+00 1.0259827881114271e+01
60 1 6.2274327263555893e+00 6.2208929154428834e+00 8.2306497006603525e+00
61 1 4.1626402819095354e+00 8.1304293480644212e+00 1.2199749311380206e+01
62 1 4.1245123698629866e+00 1.0269173707330951e+01 1.9786605857564543e+00
63 1 6.1148614546209741e+00 8.2630511532432109e+00 2.0575301535100445e+00
64 1 6.1514171829852540e+00 1.0165075954578159e+01 5.2044497235750340e-03
65 1 4.0951869454789840e+00 8.0987871280492527e+00 4.1868885386253405e+00
66 1 4.1047791200911545e+00 1.0127531776532862e+01 6.1902798402450765e+00
67 1 6.2314031427680279e+00 8.1989740056641889e+00 6.0996863272565331e+00
68 1 6.0732515431455569e+00 1.0260755326783373e+01 4.0295214796913603e+00
69 1 4.1060375785035710e+00 8.2014478352759248e+00 8.2734846186248756e+00
70 1 4.0049530531059752e+00 1.0226244564731724e+01 1.0275069495856529e+01
71 1 6.0711953480949310e+00 8.1586133463569031e+00 1.0138829099690994e+01
72 1 6.1809261727551545e+00 1.0143803577351898e+01 8.1600183416715932e+00
73 1 8.2557045262241449e+00 1.2265960067350001e+01 8.2524386728177135e-02
74 1 8.2341834235477744e+00 2.1283147920223531e+00 1.9707306018097812e+00
75 1 1.0140962581066127e+01 1.2185565250713843e+01 2.1190208588694635e+00
76 1 1.0253063995869489e+01 2.0445643387597703e+00 1.2204208683239294e+01
77 1 8.2157466875454546e+00 1.2235103477569158e+01 4.1326759726531890e+00
78 1 8.1730710657734633e+00 2.0467439721089051e+00 6.1936831464919742e+00
79 1 1.0144799095104679e+01 1.5751700664700510e-02 6.0751969894591724e+00
80 1 1.0287877350362715e+01 2.0430192072258517e+00 4.1882390666735638e+00
81 1 8.1175886649351430e+00 9.2603828024853452e-02 8.2411834073217207e+00
82 1 8.1772520993150533e+00 2.1079568128359267e+00 1.0246819781048224e+01
83 1 1.0257274212798276e+01 8.2738152541477789e-02 1.0139304083282259e+01
84 1 1.0293247640791680e+01 2.0216129559932474e+00 8.1461091232201408e+00
85 1 8.2798053542419954e+00 4.1467381004152752e+00 1.2268607027755916e+01
86 1 8.1655256792849560e+00 6.2112557811743585e+00 1.9626129744429786e+00
87 1 1.0267933751382774e+01 4.1483309247410292e+00 2.1050892759432229e+00
88 1 1.0190707344947967e+01 6.1950778365492107e+00 1.2216565688375130e+01
89 1 8.1534615900969136e+00 4.0739896224408758e+00 4.0987819967260322e+00
90 1 8.1035227331081110e+00 6.1171395601278604e+00 6.0358101380213833e+00
91 1 1.0275126145269480e+01 4.1608751824468513e+00 6.0635363358240388e+00
92 1 1.0267007153853360e+01 6.1999706176789271e+00 4.1868656645743583e+00
93 1 8.2497581124737440e+00 4.0753212970888031e+00 8.2769377417019303e+00
94 1 8.2757968809704696e+00 6.1364853958401149e+00 1.0276939307716781e+01
95 1 1.0309017533534632e+01 4.0857294143937501e+00 1.0299007248219418e+01
96 1 1.0266563713212374e+01 6.0945348511949105e+00 8.2345304539966939e+00
97 1 8.1951369571718988e+00 8.0997690306866605e+00 1.2249776085260931e+01
98 1 8.0957482026795606e+00 1.0221483392643400e+01 2.0309579216285845e+00
99 1 1.0210997488594090e+01 8.1982600707181561e+00 1.9697881320352146e+00
100 1 1.0313003781991371e+01 1.0263060089615006e+01 6.4756271678554328e-02
101 1 8.2603602464527519e+00 8.1976640093846935e+00 3.9985436441809199e+00
102 1 8.2232973648235514e+00 1.0240055170852672e+01 6.2009414444340791e+00
103 1 1.0232682094694869e+01 8.2436488190728383e+00 6.2351520586144984e+00
104 1 1.0196360962273578e+01 1.0160454288004136e+01 4.0688349598907800e+00
105 1 8.2316099979731341e+00 8.1688457863716604e+00 8.1986760218858414e+00
106 1 8.1064716943843340e+00 1.0271474702186797e+01 1.0182266480373301e+01
107 1 1.0164373512080804e+01 8.2535899997166382e+00 1.0239132564224120e+01
108 1 1.0223149788469250e+01 1.0306014753049697e+01 8.0982024872122018e+00
