1728
Lattice="33.84 0 0 0 33.84 0 0 0 33.84" Properties=species:S:1:pos:R:3 pbc="T T T" name=nacl6_rattle_fixed natoms=1728 perturb_delta_A=0.1 perturb_seed=0 perturb_mode=uniform_box source=structure_nacl6_rattle.npz
Na 0.0273923374643 33.7939573428 33.7481947048
Cl 2.72330552711 0.0626540478401 0.0825511154555
Na 0.0213271551534 2.8658993122 2.82872499829
Cl 2.90701448476 2.88317071082 2.72054770003
Na 2.89148085532 33.7467171151 2.86593108929
Cl 33.7751311241 0.07263578447 2.82829224405
Na 2.77994237811 2.80453744424 33.7456639342
Cl 33.7648566553 2.85412488294 0.0294379023149
Na 0.0230770222963 33.8167355109 5.73944198716
Cl 2.91616706776 0.0371083968961 5.67009185525
Na 0.0376893461142 2.7977842848 8.387019301
Cl 2.86429766804 2.8250708645 8.42204837511
Na 2.81716707177 0.0778975668698 8.54680870319
Cl 33.8115590393 0.014305966146 8.42437387822
Na 2.83886000604 2.7875822451 5.61832380011
Cl 0.078054870401 2.76543151871 5.66463742894
Na 33.7568030687 0.0665288295307 11.3374196615
Cl 2.7678738886 0.0752968461621 11.191713607
Na 33.8072234121 2.75005589338 14.0900678733
Cl 2.87926485406 2.7661284418 14.0104042602
Na 2.80091036796 33.7797026089 14.0181506091
Cl 0.0160664771974 33.7997392266 14.1343989756
Na 2.75990308879 2.9084226221 11.2530220336
Cl 33.7610990559 2.84582163031 11.3654309106
Na 33.8280754309 0.0909180987381 16.9199791627
Cl 2.80504572497 0.0240426904031 17.019019301
Na 0.0897887349876 2.81200902786 19.7915457691
Cl 2.8194845391 2.82586243204 19.7971571401
Na 2.80293116987 0.0468967143577 19.7822285756
Cl 0.0864119373227 33.7629865267 19.7858030234
Na 2.90548478572 2.91358523798 16.822941261
Cl 0.0727280180491 2.91623900801 17.0114420359
Na 33.7697528024 0.0945257627646 22.6379871111
Cl 2.88447476551 33.8359975848 22.5064745839
Na 0.0603761157437 2.90470603196 25.3332260545
Cl 2.82778688152 2.80855056579 25.4662034632
Na 2.72810214224 0.0464012391313 25.4028746494
Cl 33.745673073 0.0438439545653 25.2831983459
Na 2.87159020047 2.82255174465 22.6458208442
Cl 33.7532164993 2.88826345592 22.4733380018
Na 33.8088619958 33.8260597464 28.2932124162
Cl 2.83244636845 33.7917729186 28.1483351428
Na 0.0776236641318 2.76517388568 30.9449109412
Cl 2.7776661514 2.83722461296 31.0308181004
Na 2.88194215518 0.0120951904012 30.9776842429
Cl 33.8225792685 0.0636241941942 31.0453012925
Na 2.91181552854 2.79388088222 28.2105223021
Cl 0.0187848403226 2.88965824166 28.1290947076
Na 33.8213020673 5.72199179233 33.7486133777
Cl 2.88454125604 5.62307680747 0.0659607970556
Na 33.7419909122 8.43300923155 2.73572600743
Cl 2.85052291527 8.41476981972 2.86053041413
Na 2.90876028539 5.56536342045 2.89295565908
Cl 33.7518928303 5.61615410166 2.80595481224
Na 2.81776990937 8.55529246439 0.0551382376204
Cl 33.8017714725 8.4139673571 0.0726240408379
Na 0.0762614345475 5.64214130111 5.60885914619
Cl 2.91898346963 5.60318870907 5.57654247579
Na 0.0760196242608 8.52246707962 8.49357788111
Cl 2.91168272636 8.54514291544 8.50964970066
Na 2.89214028191 5.58942934806 8.38824931138
Cl 0.034012369863 5.68292370733 8.39341058576
Na 2.79911145462 8.54205115324 5.65228015351
Cl 0.0156671829853 8.39882595458 5.64520444972
Na 0.00468694547898 5.55778712805 11.3763885386
Cl 2.83427912009 5.54128177653 11.3345298402
Na 0.095653142768 8.47797400566 14.0639363273
Cl 2.75750154315 8.49450532678 14.0390214797
Na 2.8355375785 5.66044783528 14.1924846186
Cl 33.7544530531 5.63999456473 14.1488194959
Na 2.75544534809 8.43761334636 11.1925790997
Cl 0.0451761727552 8.37755357735 11.2590183417
Na 0.0747045262241 5.63446006735 17.0025243867
Cl 2.87318342355 5.72306479202 16.8454806018
Na 33.7547125811 8.37406525071 19.8137708589
Cl 2.84681399587 8.45931433876 19.6727086832
Na 2.85474668755 5.60360347757 19.7821759727
Cl 33.8320710658 5.64149397211 19.7979331465
Na 2.7385490951 8.47575170066 16.8594469895
Cl 0.0616273503627 8.45776920723 17.0177390667
Na 33.7765886649 5.73260382802 22.6201834073
Cl 2.81625209932 5.70270681284 22.580569781
Na 0.0310242127983 8.54273815254 25.2930540833
Cl 2.88699764079 8.43636295599 25.3451091232
Na 2.91880535424 5.69623810042 25.3771070278
Cl 33.8245256793 5.71550578117 25.2973629744
Na 2.86168375138 8.51783092474 22.6198392759
Cl 33.8044573449 8.51932783655 22.5050656884
Na 33.8124615901 5.62348962244 28.2082819967
Cl 2.74252273311 5.62138956013 28.100060138
Na 0.0488761452695 8.53037518245 30.9477863358
Cl 2.86075715385 8.52422061768 31.1163656646
Na 2.88875811247 5.62482129709 31.1159377417
Cl 0.0947968809705 5.64073539584 31.0706893077
Na 2.90276753353 8.45522941439 28.2727572482
Cl 0.0403137132124 8.41878485119 28.253530454
Na 0.0141369571719 11.1987690307 33.8182760853
Cl 2.73474820268 11.2752333926 33.8257079216
Na 33.8247474886 14.1172600707 2.74453813204
Cl 2.90675378199 14.1368100896 2.88475627168
Na 2.89936024645 11.2966640094 2.72804364418
Cl 0.0422973648236 11.2938051709 2.88519144443
Na 2.82643209469 14.1626488191 0.0994020586145
Cl 33.8101109623 14.034204288 33.8183349599
Na 0.0506099979731 11.2678457864 5.65767602189
Cl 2.74547169438 11.3252247022 5.59601648037
Na 33.7781235121 14.1725899997 8.47288256422
Cl 2.81689978847 14.179764753 8.37720248721
Na 2.85923089007 11.245596458 8.39508195
Cl 0.0349597299935 11.2525643902 8.4259791665
Na 2.90873555305 14.0398596681 5.64243473157
Cl 33.7448026401 14.0326736182 5.71668374673
Na 0.0578495096505 11.291367098 11.2244906792
Cl 2.83154951652 11.1824293052 11.3225987262
Na 0.0433501361127 14.1292090047 14.1222677369
Cl 2.73474328652 14.0492811938 14.1148756096
Na 2.79883735321 11.3784046457 14.1847490715
Cl 33.7704015805 11.2979921185 14.1392430212
Na 2.74730868286 14.0625191294 11.3231835694
Cl 0.0802216186846 14.06834853 11.2277887423
Na 0.064358400546 11.296996536 16.9153176843
Cl 2.77123000429 11.1945316697 16.8235782842
Na 0.0159940361128 14.0382220547 19.8351065957
Cl 2.74149544568 14.0904177577 19.7189319594
Na 2.76646229506 11.329751145 19.7687409524
Cl 0.0451515370104 11.1965617152 19.7105486831
Na 2.82396661487 14.0853442287 16.8281235124
Cl 33.778805491 14.1890049297 16.852513945
Na 0.0704104664926 11.3444274318 22.5382587514
Cl 2.81335670397 11.3448003615 22.5961372651
Na 0.0673887472858 14.1515193172 25.4182542959
Cl 2.9025948212 14.1645614266 25.3158125375
Na 2.86964485502 11.1973362646 25.3651712481
Cl 33.8193503774 11.2204336188 25.4675810217
Na 2.73895533567 14.000979883 22.5245841607
Cl 0.0981489436482 14.0529390257 22.6261388531
Na 33.7746227274 11.297275671 28.291681867
Cl 2.86330264691 11.376101595 28.2149113298
Na 0.0966669413107 14.1674094063 31.0756496452
Cl 2.89769797738 14.1262983035 30.9912729093
Na 2.82565648801 11.2253000791 31.0755088248
Cl 33.7740157003 11.2954395898 31.0271797859
Na 2.8543805607 14.1520973197 28.1219655772
Cl 0.0249881923336 14.0827911765 28.2228402871
Na 0.0387969086293 16.9370959172 0.0465772153717
Cl 2.82400505144 16.9125735618 33.7973537731
Na 33.785830334 19.7790604212 2.85914227056
Cl 2.7590965026 19.8343674833 2.85423015606
Na 2.82624322464 16.9882350703 2.81730408666
Cl 33.835188974 16.87165488 2.75122709628
Na 2.86232411578 19.8088221936 0.0355597556192
Cl 33.8137643033 19.7551444182 0.0126824947348
Na 0.0873132166949 16.8975348424 5.57295653041
Cl 2.89538657867 16.9989456994 5.549653119
Na 33.7796448062 19.7672567307 8.51776903113
Cl 2.84133850135 19.6783178392 8.38352831505
Na 2.82119452681 16.9831020813 8.40341343621
Cl 33.755026539 16.9302089992 8.39836342963
Na 2.7334847441 19.7946529196 5.70424532122
Cl 33.8196671102 19.698815272 5.59542417789
Na 33.8121942852 16.9353815286 11.2855640156
Cl 2.79106983623 16.9474841958 11.3151534884
Na 0.011655789595 19.717458983 14.1247805564
Cl 2.83838055664 19.7080647715 14.0606402025
Na 2.8291497758 16.9424683478 14.1221596878
Cl 33.8165676018 16.9331547814 14.197153927
Na 2.80560490381 19.8086029429 11.1962647383
Cl 0.0750456507404 19.8283412311 11.2323728032
Na 33.7424202831 16.9166016827 16.8565424515
Cl 2.91432625086 16.999539687 17.0121329772
Na 0.0207739315482 19.7430320734 19.8065435699
Cl 2.85046979314 19.6897115353 19.8268572077
Na 2.80793988999 16.9747112457 19.7401875914
Cl 33.7766712486 16.8791853694 19.7548821538
Na 2.74860041685 19.6427475717 16.9067782449
Cl 0.0524394343718 19.7628314547 16.8848292752
Na 0.0434481878591 16.9169029266 22.6599002705
Cl 2.87520633049 16.9861262883 22.5119097812
Na 33.7704589926 19.6798607818 25.3664529929
Cl 2.82242982392 19.6789218695 25.4359889542
Na 2.89368623088 16.8832009972 25.3816128394
Cl 0.0188749205026 16.9644756348 25.3094944909
Na 2.77617421228 19.7861411992 22.5736384629
Cl 0.0799891586878 19.7295716724 22.541322569
Na 33.8013014435 16.8662745145 28.230153267
Cl 2.77293720036 16.9924551041 28.1541296791
Na 0.034671926245 19.7536368284 31.0456917596
Cl 2.89908335513 19.6739976903 30.9499631092
Na 2.74438044427 16.8352878042 31.0268462047
Cl 33.7731462304 16.981433586 30.9245221061
Na 2.79492139435 19.7346407943 28.1433056601
Cl 33.8111812439 19.6845582871 28.1563656213
Na 0.0853742121457 22.5434350733 33.8171729883
Cl 2.84223489049 22.5928283713 0.0320553089855
Na 33.7569517934 25.3963805158 2.86718471998
Cl 2.87911367323 25.3977068504 2.74611461165
Na 2.73674806478 22.5246107386 2.90551176189
Cl 33.8345235058 22.6390947814 2.81193499066
Na 2.87102362131 25.3770254351 0.0417404522865
Cl 33.8034358553 25.4579730527 33.7931416137
Na 33.7412353658 22.6042331572 5.67532089265
Cl 2.85138028999 22.5974830005 5.6572528422
Na 33.7630557906 25.4138407445 8.36131970476
Cl 2.75656857579 25.364175681 8.43567387608
Na 2.74379303248 22.5453915208 8.48472344872
Cl 33.8154926863 22.6016998967 8.40618441908
Na 2.74876505445 25.4297799689 5.67374562595
Cl 33.8258741387 25.307353457 5.67273674787
Na 0.0499911499852 22.4927885306 11.3178603474
Cl 2.79112741728 22.643023723 11.3303079375
Na 33.794746234 25.4676052639 14.0050465512
Cl 2.7569648029 25.3283805942 14.1464160167
Na 2.8252336061 22.5528750816 14.0445066678
Cl 0.0512934220719 22.4834212816 14.0494682441
Na 2.88127206391 25.3702094929 11.3553635473
Cl 0.0203328208465 25.4379089294 11.2174806546
Na 33.8032443735 22.5353412104 16.9188398412
Cl 2.8144934049 22.6244932315 16.8546381064
Na 0.0702971829259 25.4578092588 19.6551038071
Cl 2.72187807392 25.3385505946 19.7201489536
Na 2.91408988135 22.4742817194 19.796261053
Cl 33.8350849907 22.485974705 19.7132160617
Na 2.79618028142 25.3287145001 16.8788727515
Cl 33.8239837662 25.472452279 16.9117721138
Na 0.0900270024225 22.4661064143 22.4732220517
Cl 2.72556318124 22.5931889277 22.5040465382
Na 0.0152840362586 25.4390732271 25.3463627837
Cl 2.76913549854 25.4250817174 25.3751795587
Na 2.74984202921 22.4774890235 25.4274335002
Cl 0.0720824669758 22.6380724157 25.3820178015
Na 2.75069091327 25.3251314825 22.5507047778
Cl 0.0703714747211 25.4100394838 22.5148413914
Na 0.0511877283114 22.5470880351 28.296552789
Cl 2.8057454275 22.6274392698 28.1029083263
Na 0.0436442530186 25.3596956886 31.0198018616
Cl 2.75976516007 25.4659023027 30.9599290027
Na 2.83231734082 22.5794691247 31.0916886855
Cl 33.8333333079 22.6259782562 31.0247793128
Na 2.91126693188 25.4233215667 28.2824210522
Cl 0.0884721064617 25.4404492313 28.1244735093
Na 33.7648857196 28.2232483501 33.7942413366
Cl 2.79703046485 28.1347656353 0.0524343326121
Na 0.0708995407291 30.9465609254 2.82336698735
Cl 2.799002586 31.0780030636 2.81299846004
Na 2.86616180983 28.2132207753 2.9156496228
Cl 33.8239266152 28.2975341739 2.80308771666
Na 2.75653373028 31.0764162121 33.7943438005
Cl 0.013150946167 31.049203016 33.7799354516
Na 33.7468813871 28.2974066687 5.70347802862
Cl 2.74474105099 28.269593886 5.59162604035
Na 33.7894569481 31.0745232701 8.51147240247
Cl 2.88919146879 30.9473304016 8.50951723505
Na 2.81396477485 28.1651766816 8.50686057551
Cl 0.0690286161916 28.1644921515 8.39096231133
Na 2.91833694367 31.1038379978 5.59796822996
Cl 0.0628828615999 30.9379386444 5.72250918149
Na 0.054930447053 28.139372623 11.2391374494
Cl 2.83911097097 28.1711515328 11.3272467632
Na 0.0184725738688 30.9614057305 14.122021902
Cl 2.72281181703 30.9423495631 14.0322415634
Na 2.7907355424 28.1023819477 14.1859815047
Cl 33.7879017911 28.1541277101 14.0751284651
Na 2.90814774315 30.9903638658 11.2662265712
Cl 33.7997014545 31.115249007 11.252971445
Na 33.7567074842 28.2315964788 16.9633209841
Cl 2.79444820484 28.1422770311 16.9018502902
Na 33.8278136421 31.1190599607 19.8116870651
Cl 2.84418177968 30.9587835896 19.7775829043
Na 2.87179980046 28.1150777477 19.7158973033
Cl 33.8053695595 28.2140862645 19.7706106437
Na 2.75627755768 31.0139318872 17.0184335773
Cl 33.7431705278 30.9941987224 16.8868624928
Na 33.821116604 28.2738387431 22.5476610077
Cl 2.8966156003 28.2151079686 22.544923539
Na 33.7904606175 31.0847227711 25.4088401036
Cl 2.76244521398 30.9460140987 25.3050862657
Na 2.90181439257 28.1806783075 25.4440615589
Cl 0.079072418552 28.1452666096 25.28651447
Na 2.75606721731 31.0745957411 22.4630826352
Cl 0.0128264120036 30.9582533531 22.6133321365
Na 33.8358751393 28.2098159878 28.1586816514
Cl 2.81131570074 28.1091425206 28.2619039294
Na 0.0814997846752 31.0705295039 31.0191244545
Cl 2.88875686989 30.9207641752 31.0531914814
Na 2.87347718346 28.1653312474 31.0913143382
Cl 33.7400380003 28.2264240423 30.9802047962
Na 2.84572558475 30.9702717319 28.141955974
Cl 0.0252320773611 31.0193869641 28.1374561377
Na 5.71723498598 0.0764773323975 0.0099136810059
Cl 8.50121920551 33.830277347 0.0602886728742
Na 5.70677124926 2.87283193986 2.76862976786
Cl 8.36489769204 2.85165061566 2.8022515389
Na 8.53885216902 0.0719695055093 2.8267504188
Cl 5.61548883013 0.0425979081851 2.8618739391
Na 8.49645657863 2.88848481087 0.015463717049
Cl 5.64320869597 2.82338162672 0.0777961316039
Na 5.61335022669 0.0683831719621 5.64097791275
Cl 8.37706779015 33.8297963975 5.59823927953
Na 5.64557700893 2.89066197107 8.39589110544
Cl 8.45504492486 2.83650045035 8.5139640623
Na 8.5481953925 0.010121576247 8.54432360377
Cl 5.60731179247 0.0528639542635 8.51274509166
Na 8.47025579615 2.75475774375 5.61724085913
Cl 5.59817002365 2.91337572385 5.6689244922
Na 5.72180756735 33.7992319539 11.2657880117
Cl 8.47347446514 33.8109456367 11.2712999254
Na 5.65986141144 2.72565719487 14.067962231
Cl 8.36004433994 2.8165075244 14.121600133
Na 8.37859809201 33.7884188804 14.1607983642
Cl 5.70805631197 33.8175466509 14.1628447461
Na 8.41542805061 2.86122164446 11.2890913247
Cl 5.62801981578 2.85128845523 11.1826781358
Na 5.57248868854 33.7987646929 16.956112522
Cl 8.50124706267 0.0361521648372 16.9735234213
Na 5.5559103122 2.74117778168 19.8110702321
Cl 8.43136755059 2.8336742581 19.7407005611
Na 8.48533251427 33.7553893422 19.7939580453
Cl 5.56468046563 0.0362748923668 19.7204284198
Na 8.45845232721 2.85433874687 16.8942005501
Cl 5.54920749427 2.91284231034 16.9245353799
Na 5.68842892821 0.00625896674483 22.6239373805
Cl 8.47292323582 33.7645513757 22.5883813129
Na 5.57454813389 2.884730827 25.4162123201
Cl 8.54796172763 2.84581615791 25.3250326195
Na 8.47142750917 0.054354455392 25.4223776595
Cl 5.6084593412 0.0310702301208 25.4670538123
Na 8.49696200862 2.79346028045 22.6421516661
Cl 5.70552483855 2.89103675205 22.4813682753
Na 5.59816576673 0.058025560532 28.1549614992
Cl 8.37474118711 0.0366532024945 28.2598539913
Na 5.66835356163 2.78896866729 31.0319546638
Cl 8.36430399029 2.83253233115 31.0913602349
Na 8.375610647 33.8166638793 30.9529727435
Cl 5.61600157933 33.7426015347 31.085552584
Na 8.45924866207 2.80718361311 28.2203589431
Cl 5.71000564085 2.77825214496 28.1535033945
Na 5.54989884154 5.59327981875 33.7532423696
Cl 8.36831169743 5.65054611244 33.7767669775
Na 5.55485154441 8.54334294828 2.74974677849
Cl 8.37896615814 8.55413561167 2.85339339278
Na 8.50515080833 5.65264079916 2.73407794282
Cl 5.70837544808 5.62360580084 2.79849356488
Na 8.3870618488 8.38264397717 0.00444918658206
Cl 5.65374871791 8.46373710855 0.0226249355908
Na 5.71552869262 5.64084096899 5.61582953574
Cl 8.41131454052 5.60136932849 5.65216141067
Na 5.69907446823 8.44822420599 8.36815246546
Cl 8.39763090075 8.37813044668 8.42666868281
Na 8.49687533161 5.65814294638 8.49242551799
Cl 5.63091902618 5.56195610739 8.41925119101
Na 8.46219209578 8.45943299301 5.58873227758
Cl 5.70506031163 8.4466626672 5.70909122503
Na 5.59309852607 5.72838791717 11.2023714693
Cl 8.5138364981 5.5440372906 11.2272641327
Na 5.71411066086 8.43002099996 14.1864958986
Cl 8.54588340012 8.52003851538 14.0792210898
Na 8.53165370069 5.63142086739 14.025234439
Cl 5.71039167378 5.70324934088 14.0271130881
Na 8.5333053034 8.46379261062 11.3287181517
Cl 5.59363520416 8.40309229676 11.349662563
Na 5.66004275961 5.56954109312 16.8931740173
Cl 8.53180716364 5.63365671634 16.8873705791
Na 5.60819077298 8.52492884045 19.7308598055
Cl 8.54967070055 8.42244003018 19.7912960658
Na 8.41714109854 5.6935677604 19.6435195953
Cl 5.56596419631 5.59185138131 19.8140183929
Na 8.42449967527 8.45670510824 16.841408904
Cl 5.6533356572 8.37919890679 16.8483204676
Na 5.70019447904 5.58878205725 22.4722507422
Cl 8.48036497605 5.5693000312 22.4705633447
Na 5.70611046331 8.43943656419 25.4530950152
Cl 8.50880629361 8.400192806 25.2969622592
Na 8.39427145048 5.63891603289 25.3515496279
Cl 5.70639640863 5.63384816861 25.3909499401
Na 8.43749044889 8.51098006767 22.5977879583
Cl 5.67715446682 8.51431887768 22.5397212257
Na 5.56381716825 5.70358668883 28.1691044971
Cl 8.49835252321 5.73769318187 28.2403523471
Na 5.72133714623 8.36267098973 31.040743494
Cl 8.37946453844 8.53450092616 31.1120495506
Na 8.36683071551 5.56665227007 31.086552207
Cl 5.6773772854 5.73633155532 31.071301839
Na 8.4788380149 8.46784865074 28.1019734719
Cl 5.69676294084 8.43680035728 28.1213306399
Na 5.64936695942 11.253992548 0.0211715909905
Cl 8.36333442534 11.2129952223 0.00796618596371
Na 5.66198148324 14.0164428319 2.84727557509
Cl 8.52824422967 14.0573567252 2.82426615573
Na 8.54122385498 11.320591937 2.76134446559
Cl 5.733298535 11.2484150088 2.88484048817
Na 8.45050349514 14.1579535124 0.0841845348261
Cl 5.72054466678 14.1609204921 33.8045944662
Na 5.72252593289 11.2106679548 5.59203899532
Cl 8.48927064481 11.329636224 5.55006725664
Na 5.5937728344 14.0738066427 8.52944930487
Cl 8.36038347151 14.177999116 8.42694611169
Na 8.48331471075 11.3671521574 8.37231970898
Cl 5.64905069089 11.2244434984 8.5004494972
Na 8.52356366594 14.0492498888 5.71197891425
Cl 5.57548269411 14.0960144538 5.56625652224
Na 5.60150334144 11.2548253776 11.319053383
Cl 8.42337002384 11.285931065 11.3102640426
Na 5.69714706446 14.0587076858 14.0112698878
Cl 8.40741041537 14.1091893954 14.1755354516
Na 8.49150897378 11.3014557621 14.006354485
Cl 5.63960736384 11.2461803596 14.0694832853
Na 8.5518776091 14.032693481 11.1976735436
Cl 5.60101783214 14.1285396685 11.233921717
Na 5.68116417208 11.3190183739 16.9076388152
Cl 8.52693985856 11.2447567084 16.9446387587
Na 5.64800459448 14.0143388245 19.7094451538
Cl 8.4726277105 14.1952114889 19.7967303294
Na 8.45618139922 11.2192940945 19.693992494
Cl 5.54848480438 11.2963161624 19.7248460454
Na 8.49170854946 14.1062925066 16.9033568276
Cl 5.61040519499 14.0081244493 17.0165934141
Na 5.5550394577 11.185093218 22.5030605836
Cl 8.38723724933 11.3388865674 22.4903259329
Na 5.60799001339 14.0026496762 25.4663138175
Cl 8.42420807891 14.1685756825 25.4723869683
Na 8.50549040416 11.2321483709 25.3784290949
Cl 5.6965303878 11.3197292314 25.4455143396
Na 8.46891484854 14.131500521 22.5326392448
Cl 5.57828125745 14.1394480532 22.4605764682
Na 5.69677618826 11.1814466441 28.2233601841
Cl 8.47892277013 11.2011024842 28.2184404584
Na 5.69156941265 14.1071983916 31.0545521101
Cl 8.50173434254 14.0411819765 31.1053233013
Na 8.42550828981 11.2967403912 30.9406365777
Cl 5.73928100341 11.3108282217 31.0123571267
Na 8.47322394926 14.0054376645 28.1480159292
Cl 5.73493781132 14.016206304 28.1283401788
Na 5.65461545223 16.9747944251 0.0705746320568
Cl 8.53224565657 16.9720444313 33.8095315471
Na 5.65631623078 19.8026246237 2.7477691683
Cl 8.37628411463 19.7317170392 2.78206806729
Na 8.36074694601 16.9233727035 2.79459555528
Cl 5.71662690887 16.8868352051 2.85253421272
Na 8.47361567609 19.699933322 33.8335224113
Cl 5.61353199216 19.68751721 33.7576245076
Na 5.55042426516 16.8645406245 5.55666385702
Cl 8.39012624904 16.8449839771 5.61465977605
Na 5.5876347702 19.6408817733 8.36658242354
Cl 8.55801072307 19.6890288967 8.36816552028
Na 8.48520195796 16.9303282095 8.43777030384
Cl 5.68666636674 17.0073965803 8.43927105048
Na 8.43506516538 19.7428366696 5.58689521994
Cl 5.57479478217 19.7177362032 5.67540380548
Na 5.54295400098 16.8476790495 11.3416216243
Cl 8.42642905833 16.9318311828 11.1910987371
Na 5.65015470201 19.6455476187 14.0414516872
Cl 8.44957935971 19.7447624603 14.0250616779
Na 8.45180733958 16.9760967003 14.1411574831
Cl 5.61381592884 16.9192289363 14.1598005585
Na 8.41263521252 19.6680440957 11.3738014445
Cl 5.71460146968 19.8148375695 11.2754344523
Na 5.54707041764 16.9685927017 16.9780315717
Cl 8.55302615772 16.8271561119 16.9825623317
Na 5.60735962434 19.7733179428 19.8201120592
Cl 8.41032362094 19.8386856439 19.6475697383
Na 8.38294311715 16.9161355482 19.7837901633
Cl 5.72529878646 16.9894542895 19.8341026683
Na 8.44827172788 19.7212630784 16.9378900185
Cl 5.6783897954 19.820576231 16.9384046852
Na 5.72119358992 16.9031356732 22.614271687
Cl 8.55961349135 16.8357539409 22.6014488074
Na 5.72063197178 19.8188981809 25.4545517181
Cl 8.41574943134 19.721260181 25.3816193392
Na 8.55393456252 16.8731125141 25.4120992202
Cl 5.69195582829 16.8493376464 25.4540687593
Na 8.46104580457 19.8312591753 22.6379382315
Cl 5.72948779437 19.676563589 22.6269298134
Na 5.71256386962 17.0094556627 28.2299094083
Cl 8.43370641256 16.9373784173 28.1315764191
Na 5.73923723512 19.7844439979 30.9879113419
Cl 8.54377494325 19.782478175 30.9866249088
Na 8.54587690109 16.8848683747 30.9839922047
Cl 5.54594493918 16.9601816186 30.9416003154
Na 8.36973444933 19.7712135513 28.2936710414
Cl 5.5528352581 19.7919693534 28.1457320984
Na 5.71224660976 22.4624288571 33.7788298502
Cl 8.55502905421 22.575078095 33.7663438237
Na 5.54094387143 25.3618064429 2.80688528829
Cl 8.46656067929 25.4161595825 2.75079502763
Na 8.42367254263 22.4705971443 2.91930077309
Cl 5.62477006227 22.5956970222 2.77705264281
Na 8.3884435754 25.3187069108 33.7430380687
Cl 5.67765572023 25.4779379083 33.7583201874
Na 5.57304799809 22.6203393652 5.66727779265
Cl 8.54955996224 22.5329424131 5.62561247255
Na 5.59728050504 25.4408778386 8.39750326297
Cl 8.43596017739 25.4118796075 8.54267682762
Na 8.52256592325 22.4769925232 8.5328158989
Cl 5.69826513314 22.5541468735 8.47075531844
Na 8.44864264753 25.2910924657 5.6040563847
Cl 5.72261690504 25.3997276576 5.55963637844
Na 5.65028818125 22.5836862276 11.342247726
Cl 8.47631715246 22.5002687593 11.3739856877
Na 5.59925297784 25.4250727867 14.1375450894
Cl 8.54465534965 25.4330053685 14.0775409922
Na 8.36960348468 22.5912675614 14.002377068
Cl 5.55048058222 22.464632248 14.1146260965
Na 8.51748850229 25.2940504118 11.2438592983
Cl 5.61583590099 25.4598862765 11.3092672158
Na 5.62095019961 22.6444017518 16.9574262416
Cl 8.49444929377 22.6024186554 16.9283655776
Na 5.63349970647 25.4744983247 19.754365403
Cl 8.44123952548 25.2987152061 19.6784518694
Na 8.55665791697 22.6523409154 19.6405952274
Cl 5.55555903095 22.5957780929 19.6836033233
Na 8.49273060372 25.3219643996 16.8993685303
Cl 5.60517723899 25.3292967298 16.9750228847
Na 5.60076276544 22.6429310305 22.4977441617
Cl 8.53898722177 22.4906977106 22.5191889053
Na 5.73674058832 25.2894635881 25.4476588981
Cl 8.39273667897 25.3838191494 25.471639996
Na 8.38378597914 22.5353807024 25.3816359929
Cl 5.67044650273 22.5272476204 25.3297493535
Na 8.54156406176 25.2816136216 22.6562446337
Cl 5.5698607945 25.3262060334 22.606326247
Na 5.69061223904 22.5626038221 28.1043094989
Cl 8.40453206491 22.5015972691 28.2784634581
Na 5.63176694398 25.4334886103 31.1012471256
Cl 8.43863020541 25.4647768828 31.0560828863
Na 8.48097198696 22.5501362579 31.0084222995
Cl 5.60479732287 22.5157807029 31.0170288622
Na 8.44153209855 25.3324634352 28.114745212
Cl 5.73465385801 25.3945462912 28.1671934034
Na 5.70806156292 28.197409537 0.067169337203
Cl 8.39295332218 28.129119468 33.7870523123
Na 5.71204549111 31.0729240261 2.78560816935
Cl 8.54670708467 31.0920708413 2.79761610585
Na 8.47997144647 28.2969665608 2.86125976658
Cl 5.57954811419 28.2197260339 2.89825021514
Na 8.46646546979 31.0134750996 0.0490787981094
Cl 5.63080884559 31.0466287129 33.7414053627
Na 5.69256219626 28.2922058621 5.70904436594
Cl 8.52334227793 28.1947175332 5.68707190332
Na 5.63783182069 30.9427084896 8.36670705779
Cl 8.42963919538 31.0873260915 8.45403300105
Na 8.38220473713 28.1067110599 8.46557168899
Cl 5.58968182938 28.2277436438 8.41914574408
Na 8.44871875008 30.9482780916 5.62116430884
Cl 5.6537257455 31.0260942526 5.5604346052
Na 5.71200810551 28.2427757207 11.2097662619
Cl 8.38205053023 28.1346728412 11.2620486386
Na 5.58896632364 30.9657302137 14.1255296305
Cl 8.38388182611 30.9626020309 14.1828898794
Na 8.38353960715 28.1445546792 14.1816990553
Cl 5.69621267199 28.1896537142 14.1939094738
Na 8.42538564788 31.0387409513 11.2206734671
Cl 5.63184579658 30.9690607235 11.3241523658
Na 5.57684046622 28.2772001783 16.9993879284
Cl 8.51371207922 28.2771862956 16.8804767457
Na 5.55035797691 31.1016628385 19.7553741094
Cl 8.36878908606 31.0751876698 19.7043030098
Na 8.55040147911 28.2969229953 19.7605281933
Cl 5.7215676189 28.1714086311 19.6949306979
Na 8.50603440467 31.0317709417 16.8249394434
Cl 5.60974579628 30.9217272418 16.8818102166
Na 5.63353791554 28.1723903319 22.5648286888
Cl 8.36589508774 28.2897830264 22.5022220237
Na 5.55682469286 31.0412116297 25.4142094148
Cl 8.42417565022 31.103091092 25.3109055995
Na 8.39440064065 28.2687267898 25.369826732
Cl 5.65195659186 28.2535579061 25.3751035423
Na 8.53809146781 30.9647804168 22.557909034
Cl 5.57398120105 30.9675858 22.5826777485
Na 5.66039968775 28.1762615777 28.1018304161
Cl 8.44966452172 28.1539442747 28.2990559507
Na 5.6556920967 31.0971358025 31.0582504639
Cl 8.37828490643 31.0181391469 31.1099412965
Na 8.46627282723 28.1282770889 31.0724958685
Cl 5.69560147872 28.2469073681 31.0521434522
Na 8.53017741659 31.00606375 28.1680654085
Cl 5.71912231954 30.9371512185 28.2938223734
Na 11.2156812362 33.8068631098 0.0603720936399
Cl 14.0249832451 33.814578051 0.0297639863594
Na 11.2461175755 2.88899573904 2.77888061201
Cl 14.1179656301 2.79052516193 2.74193242055
Na 14.0556855126 0.0632322941525 2.78338858368
Cl 11.2490615951 0.0777128466412 2.90315119607
Na 14.1148077928 2.74208000352 33.7918421191
Cl 11.3383010747 2.79584598601 0.0856422351855
Na 11.2558364555 0.0974066143398 5.67111194334
Cl 14.0557509653 0.00943895097544 5.70006676973
Na 11.2296376372 2.77904665491 8.44328302591
Cl 14.0725736294 2.90789490935 8.48943318729
Na 14.1179702076 0.089348877347 8.44039229203
Cl 11.3172398434 33.7737100096 8.52677543985
Na 14.0656292184 2.81562105228 5.54549141665
Cl 11.2093753087 2.88287370034 5.67515589152
Na 11.1809853377 0.0523505808212 11.3053623564
Cl 14.1895972903 0.0860891572828 11.2643567757
Na 11.2022281287 2.80390413408 14.0793633613
Cl 14.1000044253 2.76985461751 14.0652462286
Na 14.0128053561 0.0504817457254 14.0558695163
Cl 11.316164651 33.7953456603 14.1682723883
Na 14.0476491638 2.74412068736 11.3362013163
Cl 11.2256180504 2.75491301362 11.2941910388
Na 11.1924934158 0.0117027308994 16.8236731421
Cl 14.0856787505 33.8230578005 16.8370880654
Na 11.1964139935 2.83740886895 19.6408239656
Cl 14.1463442191 2.79371143323 19.6925651408
Na 14.1902085924 33.7444742797 19.7653928744
Cl 11.1835732705 33.8164005187 19.7025118172
Na 14.016068399 2.87663795804 16.9343718465
Cl 11.1954672692 2.91543391262 16.8421482558
Na 11.2784156864 33.7461019195 22.541164094
Cl 14.0983151578 0.0712614896672 22.5955091316
Na 11.2504555113 2.75686022058 25.2890437852
Cl 14.0657025014 2.73256523781 25.3151811566
Na 14.1301494708 33.7803101037 25.3547836756
Cl 11.1814175824 0.0825351281487 25.448171424
Na 14.0189239681 2.85691372429 22.5583573361
Cl 11.3443783726 2.75574851448 22.4960208604
Na 11.3708005416 33.7816526984 28.1869985757
Cl 14.0334449342 33.8049971382 28.1660892873
Na 11.3015412971 2.82582594413 31.1113553654
Cl 14.1615662655 2.86868971229 30.9793429618
Na 14.0605745791 33.8315008827 30.9786732488
Cl 11.2171567879 33.7793360842 30.9958195696
Na 14.0672412099 2.9082200255 28.2210052618
Cl 11.3539647763 2.73972377012 28.1078264068
Na 11.346746192 5.62746507104 0.0101338630727
Cl 14.0545430095 5.62664299641 33.7665398264
Na 11.3783262007 8.46993014782 2.73976362472
Cl 14.1703154646 8.44601592182 2.84703945691
Na 14.031450293 5.61911770442 2.8195973921
Cl 11.2794505193 5.7039512189 2.81915788788
Na 14.0604999567 8.41355102505 33.8015403713
Cl 11.2744668514 8.41285895303 33.746189298
Na 11.2198472277 5.65563115079 5.59410669818
Cl 14.0663658826 5.59171555059 5.55935467812
Na 11.216078649 8.41089614526 8.52786999793
Cl 14.0442451439 8.52567956378 8.50865992164
Na 14.1948589037 5.69071802885 8.38302261081
Cl 11.3680085506 5.7084189242 8.44872572033
Na 14.0867177886 8.3661908567 5.58352830764
Cl 11.3229772231 8.38210535988 5.73834897859
Na 11.1843364947 5.73819469215 11.2392415145
Cl 14.0921730428 5.64909429046 11.2379106372
Na 11.2240995141 8.37011383905 14.1646866009
Cl 14.1944618742 8.38511149518 14.1719661677
Na 14.1441078894 5.69004506824 14.0775610921
Cl 11.191514982 5.67808462472 14.1924252857
Na 14.1317516493 8.40681046272 11.2873470528
Cl 11.2043350286 8.50357570923 11.3145728388
Na 11.2693587999 5.54173289874 16.8320732144
Cl 14.1363955373 5.67848266867 16.9350418654
Na 11.2255382446 8.49262631744 19.6611010403
Cl 14.125536115 8.47446358159 19.7110987273
Na 14.0438332083 5.68491654067 19.676198391
Cl 11.2114709316 5.66655282381 19.7721249062
Na 14.0203938196 8.41245766141 16.8397192068
Cl 11.3627662925 8.36167730302 16.8902023155
Na 11.2113642015 5.6333989754 22.6413674715
Cl 14.1414752753 5.61203475092 22.4973307391
Na 11.3210024268 8.4683831746 25.4240579939
Cl 14.0089710572 8.39462812483 25.3439746603
Na 14.0933073394 5.65388920407 25.3924187989
Cl 11.2885831324 5.65322326821 25.3634951246
Na 14.0557625698 8.46362590818 22.4843721027
Cl 11.329854274 8.55058714476 22.4708192975
Na 11.3364654282 5.58476657823 28.167282271
Cl 14.0067076351 5.73381715938 28.2124191211
Na 11.1963162864 8.42431112691 31.1154562132
Cl 14.0120082515 8.54358122109 30.9759020898
Na 14.0155774202 5.66492916144 31.0992472941
Cl 11.2532831409 5.60932417972 30.9724739045
Na 14.0622494377 8.37350634696 28.2010542157
Cl 11.2483136161 8.39322845975 28.2444740458
Na 11.3586474277 11.3414308809 33.7671093076
Cl 14.1827080145 11.2617616125 0.082917422794
Na 11.1967273272 14.1967579846 2.73934790164
Cl 14.1490849616 14.1428825958 2.87143350721
Na 14.0489328109 11.3295859303 2.82258023862
Cl 11.1894098882 11.1995058192 2.7760474614
Na 14.1694897893 14.0851165532 33.7948087823
Cl 11.2869803039 14.0660437935 33.8016152909
Na 11.2196404089 11.2502593339 5.57313870802
Cl 14.1148208408 11.2553676561 5.54788495201
Na 11.2232240986 14.0956825454 8.41560561519
Cl 14.176466853 14.011647643 8.4895853193
Na 14.1721970984 11.3641618311 8.45684086682
Cl 11.2606206872 11.1871302359 8.45292921518
Na 14.1299806449 14.0676443923 5.5723481935
Cl 11.2741245241 14.0324637287 5.65158687251
Na 11.2713992123 11.3789614514 11.2125791005
Cl 14.1270425159 11.2198830607 11.2636942776
Na 11.329487561 14.0994320172 14.0721398394
Cl 14.1778266505 14.1744259179 14.0765058099
Na 14.0189325992 11.2485732747 14.0373235443
Cl 11.3289744499 11.3077119819 14.1010286813
Na 14.0032749006 14.1932184505 11.182693508
Cl 11.2854899038 14.0863288749 11.2323788524
Na 11.3579994183 11.2486121001 16.9330215067
Cl 14.0261125202 11.190487793 16.9880450823
Na 11.2057738413 14.0270507076 19.7713678812
Cl 14.042980338 14.1561746603 19.6549315728
Na 14.0062363987 11.2558558702 19.813392072
Cl 11.2068927833 11.1810577886 19.7364171248
Na 14.0897773591 14.087593362 16.8659701776
Cl 11.3220563453 14.1703318203 16.9107817517
Na 11.3651817037 11.3233379426 22.4753566134
Cl 14.1880875297 11.2585779709 22.5856531148
Na 11.2150949414 14.1042475924 25.3240952232
Cl 14.1309605285 14.0611721732 25.4793645832
Na 14.0217785245 11.2928014229 25.3167136905
Cl 11.2390883587 11.3520722478 25.380255183
Na 14.017802334 14.1457224283 22.5488197795
Cl 11.19653713 14.0969114031 22.5491055759
Na 11.2967575322 11.2668755783 28.2201803365
Cl 14.1407679569 11.377892449 28.2115250022
Na 11.2681234812 14.1424092891 31.1027718033
Cl 14.0046016373 14.0072120882 31.1154646645
Na 14.1092017111 11.1903553319 31.0520745939
Cl 11.1993055346 11.2012287605 31.0005466307
Na 14.1327405111 14.1640241061 28.2707738941
Cl 11.2573558325 14.1960363789 28.1278930882
Na 11.3141427311 16.8663257906 0.0416464830297
Cl 14.0938679951 16.8260586315 33.7489315851
Na 11.2391805484 19.6594832503 2.85761512703
Cl 14.0921506528 19.7688031909 2.85332023495
Na 14.0094993712 16.9029169792 2.85657663526
Cl 11.3606231168 17.0091997375 2.79654138467
Na 14.1152693866 19.8268037706 33.7490356148
Cl 11.3752376248 19.7309578561 0.0698696591532
Na 11.2135662171 17.0071686813 5.69489123912
Cl 14.130585837 16.8546124922 5.627654472
Na 11.297137892 19.7203898911 8.5385740472
Cl 14.1101574128 19.6578106575 8.53506729165
Na 14.0622614861 16.854314175 8.48857604071
Cl 11.3415947166 16.8780609018 8.45747691836
Na 14.1935962796 19.7283923141 5.61461072629
Cl 11.2900843751 19.7814160744 5.66864611337
Na 11.1866392312 17.0079328826 11.2717039773
Cl 14.1408441933 16.9397323765 11.2128458496
Na 11.3789482454 19.7974235437 14.134544892
Cl 14.0539392124 19.6782943093 14.0179281353
Na 14.1115273891 16.8622202157 14.0841827658
Cl 11.3322096866 16.9413138264 14.0635020312
Na 14.0185679809 19.7016352663 11.2194608153
Cl 11.2890532199 19.7244807034 11.2517604948
Na 11.2572739892 16.901598428 16.9052428211
Cl 14.0654266484 16.9719370344 16.9258344145
Na 11.1822584411 19.722131257 19.6850001987
Cl 14.1190891164 19.8078758791 19.7886733757
Na 14.0246014292 16.9201003978 19.7331029207
Cl 11.2679173827 16.8938118208 19.7773392698
Na 14.0243376084 19.6499779672 16.9486949914
Cl 11.2201071544 19.711728249 17.0044119124
Na 11.208379581 16.9899580626 22.5411507138
Cl 14.0383486684 17.0169768393 22.5815327821
Na 11.2244474471 19.7926830655 25.3541067168
Cl 14.1064516697 19.711312966 25.3127025836
Na 14.1655895501 16.9613302761 25.3321191349
Cl 11.2855375156 16.8225467697 25.4489657307
Na 14.0444665804 19.7015376176 22.6381291484
Cl 11.2193081011 19.775278325 22.4710401736
Na 11.294440822 16.9740276484 28.2133212312
Cl 14.1989225582 16.9381658441 28.1840865659
Na 11.2392018697 19.7667023547 31.0640497029
Cl 14.0815921068 19.8301033395 31.0575635727
Na 14.1219247194 16.8779364017 31.1167102714
Cl 11.2285053268 16.9187157426 31.0119208694
Na 14.0940319882 19.7121473958 28.2425706606
Cl 11.3429899078 19.6671138696 28.1081610675
Na 11.2689081002 22.6599114498 0.0333942055779
Cl 14.1219392497 22.5493882917 0.0594445359331
Na 11.193094441 25.4034971193 2.88289712897
Cl 14.0726317286 25.3700899967 2.78053919428
Na 14.0912383567 22.591595787 2.72007561698
Cl 11.1883853818 22.5644206856 2.75980804136
Na 14.0445955215 25.367650085 0.01081914889
Cl 11.3284846672 25.3200112118 0.0735282898949
Na 11.3495221634 22.5757616449 5.56618993837
Cl 14.0866929414 22.4731089163 5.73335241852
Na 11.2106311229 25.4556614115 8.46505966586
Cl 14.0632327988 25.2960316454 8.47298367195
Na 14.078673763 22.4837048511 8.37622035458
Cl 11.2739580006 22.4871888272 8.41342507549
Na 14.1961431156 25.4213715312 5.68466308539
Cl 11.3752893905 25.3169302639 5.71978470905
Na 11.1963983564 22.5955769326 11.2352411018
Cl 14.1681676247 22.6409217575 11.2850501864
Na 11.2581859981 25.3513798022 14.1881147962
Cl 14.1718285139 25.4545452722 14.1351340119
Na 14.0037312454 22.5469058799 14.1843133362
Cl 11.1981880726 22.5325883155 14.1815428052
Na 14.0562544829 25.4359390003 11.2381902185
Cl 11.2643173094 25.3158687796 11.356279075
Na 11.366716426 22.5883526536 16.9976549755
Cl 14.0739181193 22.6593678312 16.9871195998
Na 11.3249841582 25.2936790295 19.8202158199
Cl 14.1667259398 25.3486522054 19.7359085079
Na 14.0152589682 22.5198030336 19.7191889198
Cl 11.2557136395 22.6142469636 19.8189341612
Na 14.0841385111 25.3126566859 17.0011845114
Cl 11.2087201783 25.4016512864 16.9235399563
Na 11.2599814824 22.4890463287 22.5823349139
Cl 14.1849337581 22.5083072547 22.6494347863
Na 11.2846383267 25.4222109467 25.3834246011
Cl 14.0327849081 25.2963442866 25.2868303663
Na 14.0092293413 22.5496754802 25.3496295663
Cl 11.3232654708 22.5403564683 25.3776194358
Na 14.0270243984 25.4238345065 22.5211405586
Cl 11.3327200352 25.4167794994 22.5886317763
Na 11.1827899653 22.6232948819 28.2237472449
Cl 14.1213126998 22.6271484608 28.1420444717
Na 11.2987107611 25.4747848548 31.085957059
Cl 14.1839770253 25.3847190479 30.9351976962
Na 14.1325141437 22.6256340466 30.9772982214
Cl 11.2720926282 22.5166910997 30.9560081548
Na 14.1705515834 25.4157054838 28.2074466779
Cl 11.3457085812 25.3291934907 28.2348318645
Na 11.3699431062 28.2615469758 0.04028363453
Cl 14.1715601144 28.1674194282 33.8118760053
Na 11.1819341535 31.0588026871 2.89244149438
Cl 14.0840301996 31.0968337614 2.88496237759
Na 14.1534334637 28.1727039949 2.87759686044
Cl 11.3027587905 28.2906155648 2.74866340434
Na 14.1591396898 31.0077933059 33.7907094006
Cl 11.1862608291 31.1057830477 33.7484085481
Na 11.3525970724 28.1763022335 5.71904953693
Cl 14.0627372455 28.2329376752 5.61300205229
Na 11.2470147839 31.0493446921 8.51510689823
Cl 14.0282533688 30.9368880563 8.40751302902
Na 14.02924833 28.1486003617 8.54467784926
Cl 11.3612864413 28.223584167 8.54128435033
Na 14.0585308531 30.9388348425 5.61314529412
Cl 11.3559207467 30.9256439702 5.71499524869
Na 11.2715414099 28.2488891763 11.2854277294
Cl 14.0180542303 28.2467538157 11.2055190435
Na 11.3690054381 31.0223354331 14.1290654919
Cl 14.0029004886 30.9474472664 14.1634812204
Na 14.0116305158 28.1083956737 14.0173206763
Cl 11.2148666843 28.2501219402 14.133029947
Na 14.1581555979 31.0723630312 11.192952735
Cl 11.2294466322 31.1057413502 11.2870894009
Na 11.3207974718 28.2954066919 17.0053808081
Cl 14.1853676954 28.1820738636 16.9271438249
Na 11.1934371902 30.929544775 19.7469012122
Cl 14.0460079136 30.990469128 19.6898793226
Na 14.0933715288 28.2854627754 19.6860629613
Cl 11.1963097237 28.290652283 19.7674250547
Na 14.0740607335 31.0205818085 16.8393783481
Cl 11.242218124 30.9277259862 16.8500165696
Na 11.2748667066 28.1165005532 22.5246863881
Cl 14.1184359246 28.2724342931 22.5057064858
Na 11.2525687079 30.9754533074 25.3372674362
Cl 14.1920296992 31.0066169256 25.4418850593
Na 14.0299522829 28.1922786253 25.3735151402
Cl 11.3044658068 28.2345474164 25.3584692891
Na 14.0396572781 31.1089478716 22.5340860375
Cl 11.2049896958 31.028342704 22.5013794719
Na 11.3401508629 28.238143317 28.219986317
Cl 14.0030924506 28.1845105679 28.2104324908
Na 11.332765148 30.9881822596 31.107125927
Cl 14.089289036 30.9372360169 31.0071999418
Na 14.1682260635 28.1376189085 30.9844980602
Cl 11.3755072407 28.1146867757 30.9877779768
Na 14.0878762154 31.0162618981 28.209685677
Cl 11.3170091155 30.998196026 28.1068971254
Na 16.8877426005 33.7442505702 0.00017897559251
Cl 19.8138268672 33.7568405853 33.8213504903
Na 17.0026128706 2.88606074025 2.86766167903
Cl 19.782125072 2.72154337863 2.8071513758
Na 19.8178949671 0.0444426814898 2.79038791222
Cl 16.932119234 0.0238357253902 2.89272970414
Na 19.7497296733 2.8908718947 0.0473647768272
Cl 17.0193426709 2.78824114595 0.00313734586582
Na 16.9462034157 33.7429760982 5.64783227019
Cl 19.7340127155 33.795742524 5.66312320731
Na 16.9642576734 2.85404449219 8.54127121978
Cl 19.7330058057 2.8624149653 8.39589860336
Na 19.7705763692 33.766400264 8.5191958868
Cl 16.9823951268 33.7678543011 8.54498899795
Na 19.7378274361 2.90264639454 5.71300987978
Cl 16.8906807302 2.86579681448 5.7163053959
Na 17.0197884285 33.7906771713 11.3377969515
Cl 19.7174061053 33.7536094429 11.2361591312
Na 16.8518436738 2.86443206205 14.1090603057
Cl 19.670397237 2.84093399411 14.0321662014
Na 19.7544126673 33.8087821172 14.1517102054
Cl 16.9187153319 0.0647796729188 14.0703685567
Na 19.7209911911 2.77460829185 11.3187386667
Cl 17.0055491058 2.73411098498 11.2967833066
Na 16.9267981595 0.0684288818863 16.9153602087
Cl 19.766161232 33.7996105694 16.9433595161
Na 16.984134179 2.74374276309 19.7743354367
Cl 19.6634565756 2.87615889656 19.7443646985
Na 19.761574673 33.819753214 19.7363038649
Cl 16.8554776988 0.0639474955023 19.689316698
Na 19.7604805443 2.85705202592 16.8791575223
Cl 16.8441136335 2.75179048 16.8485073856
Na 16.9155054892 33.8087165325 22.4895650323
Cl 19.8185919298 33.7913712917 22.460065878
Na 16.8830065457 2.77155420483 25.3592060596
Cl 19.6873255621 2.78761393182 25.3912631863
Na 19.6534763995 33.7536537056 25.330973278
Cl 16.9081476788 0.00540442431972 25.3408244132
Na 19.6457647191 2.89710519383 22.5170240938
Cl 16.9201273022 2.73932273831 22.4885644006
Na 16.9548288829 33.7876739236 28.2223152078
Cl 19.7450274883 0.00633930422554 28.2799862981
Na 16.9145893585 2.90275485093 31.0402674075
Cl 19.7884574363 2.81419839737 31.0468633657
Na 19.8198110344 0.017993577763 31.0595392693
Cl 16.8587910749 33.7557190138 31.1105757939
Na 19.676631801 2.78267948321 28.1815169104
Cl 16.9834071241 2.77933107625 28.1314363517
Na 16.9054931158 5.70503489469 33.7488076429
Cl 19.7467215478 5.6808080757 33.8333023384
Na 16.9945067939 8.43624799305 2.86139300455
Cl 19.6737539998 8.38726442402 2.84680506563
Na 19.7260114128 5.6479889534 2.84332219128
Cl 16.8762565018 5.63774109161 2.8882042582
Na 19.658105953 8.47424526408 0.0656460299226
Cl 16.8241457199 8.50309210525 33.7803676978
Na 16.8864648043 5.54075240568 5.60822673773
Cl 19.8070478696 5.55603674569 5.72337052624
Na 16.9060147428 8.45889265945 8.41701441097
Cl 19.8270736314 8.39959096 8.51581762286
Na 19.745270729 5.60304724792 8.49567083991
Cl 16.9785805864 5.71572758129 8.37240848936
Na 19.6436926586 8.41430305564 5.60580292103
Cl 16.8736403075 8.39777299607 5.59621495865
Na 16.9661994474 5.61182874652 11.2973752267
Cl 19.7502641305 5.70319647815 11.3132873038
Na 16.9843567178 8.47056008961 14.0099191777
Cl 19.712570326 8.4151434264 14.0416218286
Na 19.7699814554 5.7056813062 14.1548816303
Cl 16.8812365014 5.63078824847 14.058899853
Na 19.7133476507 8.44988543749 11.3778435978
Cl 16.8361449192 8.44173884179 11.3631667801
Na 16.9356792497 5.61176655676 16.9713958288
Cl 19.8362149796 5.69001685669 17.0022554603
Na 16.9328232661 8.4201924358 19.6669981939
Cl 19.8285247742 8.398867589 19.7990918764
Na 19.7587771215 5.62135947049 19.7014158254
Cl 16.823251942 5.72115902061 19.7526029513
Na 19.793681885 8.49187607147 16.9984109121
Cl 16.8406705582 8.49844453452 16.9606832735
Na 16.9141740623 5.57858735767 22.5480296995
Cl 19.6438403618 5.68381311634 22.6574720514
Na 16.9899151719 8.45902614445 25.422802759
Cl 19.7041846336 8.42899795418 25.35651623
Na 19.7958061241 5.61081098025 25.4004667078
Cl 16.9787909486 5.72603410581 25.4197626153
Na 19.7476148458 8.5231276795 22.5379760527
Cl 16.9133407737 8.53101442093 22.4715898029
Na 16.9875354072 5.69625413494 28.2942043314
Cl 19.6978302881 5.65837919355 28.2786909036
Na 16.8246175264 8.52464298432 31.0831388113
Cl 19.7701298319 8.47564614836 31.1113872298
Na 19.7190631839 5.61821280028 30.9927235016
Cl 16.9207462274 5.68095182853 31.0078729125
Na 19.7266271123 8.39764928807 28.2099064471
Cl 16.8626540863 8.48443988224 28.2959686219
Na 16.9090945141 11.2104491651 0.0985101078147
Cl 19.7180216849 11.2799629148 0.0747053250233
Na 16.9616845185 14.0930680811 2.89258945909
Cl 19.6896843082 14.0363383982 2.85038461866
Na 19.7164150186 11.2869694617 2.87025139908
Cl 16.9144157498 11.3679547429 2.74941280477
Na 19.8078018936 14.1577918675 33.7636076782
Cl 16.930247682 14.1567898295 33.8229600317
Na 16.9170408259 11.3290986623 5.71231124878
Cl 19.7187208023 11.3474233025 5.70246677852
Na 16.8437245788 14.1337675755 8.5247550008
Cl 19.8074088244 14.0836310454 8.40310341859
Na 19.6741583485 11.3505164629 8.42670458438
Cl 16.9811635566 11.3016468535 8.4034570695
Na 19.7239388643 14.1613502396 5.71402432062
Cl 16.8905531406 14.1560945657 5.55145039441
Na 16.9257531749 11.2076816373 11.3724914681
Cl 19.7796740714 11.2508991613 11.3722775769
Na 16.8400386115 14.0898343122 14.0617133035
Cl 19.8384862101 14.0176929953 14.1055193464
Na 19.684566928 11.3190942077 14.0941286195
Cl 16.9905873622 11.3232239516 14.1522569009
Na 19.7029430574 14.031263178 11.2572632725
Cl 16.8274885866 14.0486957868 11.3028577482
Na 16.8603631317 11.1877325464 16.9326748768
Cl 19.7961016623 11.2178293271 17.0046271865
Na 16.8883460271 14.106072566 19.7665965115
Cl 19.7496825441 14.1165129127 19.6606917905
Na 19.740056257 11.3299674368 19.668294086
Cl 17.0057454132 11.1926889442 19.7959983948
Na 19.7173911989 14.0587289461 16.9899075568
Cl 16.9841800931 14.1214049145 16.8962442942
Na 16.9779208507 11.210137173 22.5399951889
Cl 19.7242545657 11.2118039247 22.5406487994
Na 16.8935279428 14.0286775628 25.3096555678
Cl 19.8331036688 14.0137513675 25.3047758846
Na 19.8333562931 11.3700653412 25.3470818942
Cl 16.8405578796 11.3017320519 25.3676194435
Na 19.8304114067 14.0256670745 22.6156433617
Cl 16.8249668959 14.0415305898 22.5201057261
Na 16.8528854587 11.3389940777 28.134717656
Cl 19.7321492652 11.2058684204 28.2552031056
Na 16.9542542515 14.0098004762 30.9559297555
Cl 19.7649476101 14.0845012518 30.9804223358
Na 19.7659309832 11.3568557305 31.0139145428
Cl 16.864649203 11.2867842553 31.0392361466
Na 19.6819151982 14.1464293856 28.2084650366
Cl 16.9513484474 14.0906137491 28.1877374495
Na 16.8620271068 16.9983241672 33.7794714215
Cl 19.6898740462 16.8927090506 0.0946105898489
Na 16.9303763986 19.6692332953 2.88790639985
Cl 19.6980681794 19.6441896949 2.86645662613
Na 19.8323330103 16.9989636534 2.72754141152
Cl 16.9123782707 16.8581755371 2.78066122442
Na 19.6774582296 19.7968084199 33.7960472324
Cl 17.0131727232 19.7449844544 0.014414169412
Na 16.9775679048 16.9561331686 5.71245554097
Cl 19.6654672444 16.9191120293 5.64949543592
Na 16.8418284255 19.7865240206 8.45079841666
Cl 19.7640306197 19.8126739104 8.50168694523
Na 19.7942267742 16.8785631754 8.44945294661
Cl 17.004640519 16.8978040037 8.45423808829
Na 19.6660161337 19.7738218366 5.58524956235
Cl 16.8529047683 19.8138910044 5.57538088402
Na 16.9378480599 16.8732340862 11.2767818818
Cl 19.8234774847 16.9748139212 11.3335514598
Na 16.8385132194 19.6614053701 14.154170347
Cl 19.7357112251 19.8093319312 14.0750991064
Na 19.7658388109 16.8735162475 14.0802059815
Cl 16.9196558641 16.8549551922 14.0773308203
Na 19.711164329 19.6881393714 11.3318428916
Cl 16.9413051849 19.7266581093 11.2948377066
Na 16.9094872449 16.8864229678 16.8642690815
Cl 19.7798839629 16.8226659762 16.8403105174
Na 16.9334525802 19.6978441369 19.6974459462
Cl 19.7937390164 19.8383090939 19.7464010916
Na 19.6405167127 16.9402807867 19.7911727407
Cl 16.8562703588 16.8685837439 19.6816851139
Na 19.7968370074 19.8262169882 16.9805060422
Cl 16.896769112 19.796220569 16.9291610304
Na 16.9019423971 16.911277802 22.4867542321
Cl 19.8343544602 16.9847027317 22.5017045962
Na 16.9489828434 19.6610442766 25.2990335582
Cl 19.6693118009 19.7540601549 25.3438012232
Na 19.8072816066 16.9415527917 25.4512289267
Cl 17.0126417837 16.8426246141 25.3449508145
Na 19.7200219282 19.7131704298 22.5078317846
Cl 16.9614462201 19.675789344 22.6008772012
Na 16.8977626367 16.9259713507 28.2312870755
Cl 19.7696649273 16.8681540748 28.1932036562
Na 16.8873612255 19.8358182121 31.0458191817
Cl 19.7062398935 19.6899566401 30.922631212
Na 19.6559334696 16.9824254264 30.9679599045
Cl 16.9484414632 17.0102163175 30.9441696541
Na 19.8268388114 19.6779186667 28.2770490006
Cl 16.9657283907 19.8042212243 28.1711856274
Na 16.8779398007 22.5783399143 0.0236387304263
Cl 19.8119644269 22.4843589727 33.8209817268
Na 16.8650104933 25.3514052422 2.77271705061
Cl 19.6639763206 25.341073583 2.9189793895
Na 19.7784396395 22.5780259721 2.88003177605
Cl 16.9487893167 22.5528139052 2.82326996862
Na 19.6496846979 25.4287255008 33.8114409307
Cl 16.9866351134 25.3625428625 0.0363377565422
Na 16.9072258933 22.4910875491 5.64384188383
Cl 19.8329695685 22.509190516 5.57824122727
Na 16.98863244 25.3560440978 8.46215552091
Cl 19.7523849381 25.3963097148 8.52139470609
Na 19.7215714908 22.561269918 8.37656735686
Cl 16.9953157692 22.5946054647 8.42674524453
Na 19.6754866738 25.3858188234 5.57495015341
Cl 16.8931155707 25.3898932185 5.63796378431
Na 16.9309275203 22.6596944784 11.2230731544
Cl 19.7290741872 22.4707413651 11.3419292737
Na 16.9371120823 25.4651996174 14.1315306942
Cl 19.7352206994 25.3859673854 14.0902745767
Na 19.7067586843 22.5809084967 14.0833905319
Cl 16.9841051054 22.6336474294 14.0675813978
Na 19.7783400057 25.3661550207 11.228681964
Cl 17.0178807085 25.3276231339 11.3120589989
Na 16.9724907103 22.5989808461 16.8376741707
Cl 19.6972123579 22.5966730499 16.8710374773
Na 17.0136589062 25.368420235 19.7504317463
Cl 19.740753221 25.3662950889 19.7330920218
Na 19.8234387496 22.4646835398 19.833955108
Cl 16.8429215238 22.5461026035 19.7785190422
Na 19.8000538203 25.4115969284 16.9180384067
Cl 16.9980691163 25.3669462391 16.8694821875
Na 16.9761692637 22.572897088 22.4868544621
Cl 19.7059634628 22.477857366 22.5682537639
Na 16.8499876205 25.4231779184 25.391101478
Cl 19.8342156284 25.2823282428 25.4232222796
Na 19.6807359965 22.4668959287 25.4056341813
Cl 16.9291430719 22.5204732163 25.3814660079
Na 19.651018174 25.3654358119 22.5753715861
Cl 16.9949420699 25.4494361074 22.6194431003
Na 17.004398715 22.5436166918 28.1898099104
Cl 19.6418392518 22.5514674678 28.2018189439
Na 16.9310363222 25.4707435623 30.9364506577
Cl 19.7021190171 25.3651942956 31.085408291
Na 19.7706326341 22.6209387808 30.940475238
Cl 16.8862216522 22.4635863903 31.1047021558
Na 19.7838162243 25.3520370249 28.2009734018
Cl 16.8219493649 25.4367021059 28.2836253608
Na 16.8714430194 28.2403440572 0.00248549956045
Cl 19.7733543821 28.2145000208 0.00504806118979
Na 16.9381624497 30.9413953972 2.7376772206
Cl 19.7026522462 30.9377767182 2.79568254278
Na 19.6563159343 28.1332275173 2.86109710042
Cl 16.8248299316 28.2177786514 2.78984520923
Na 19.7903536831 31.0802363788 33.7631601197
Cl 16.8999479915 30.9908952549 0.0275148216269
Na 16.8848072892 28.2293418359 5.70650536221
Cl 19.7071941188 28.217741969 5.7033282224
Na 17.0166699074 31.093677875 8.55489468361
Cl 19.8376375079 30.9328852724 8.47944147062
Na 19.6423183221 28.1187491452 8.38989701098
Cl 17.0164270695 28.2334834557 8.48801854068
Na 19.6499786674 31.0070061464 5.69933360867
Cl 16.9101078099 30.9265480438 5.6129314071
Na 16.8259623921 28.1532810197 11.3525419185
Cl 19.7812321343 28.1532616077 11.2900167964
Na 16.9002917295 31.0604561831 14.0887823886
Cl 19.8145485735 31.1054493874 14.1713182716
Na 19.6656850087 28.1564241896 14.1809250845
Cl 17.0076895378 28.290255907 14.002363741
Na 19.7088795205 31.0076859636 11.260288259
Cl 16.8257253756 30.9689951615 11.3690015948
Na 17.0018072711 28.1260022968 16.8299490249
Cl 19.7823368899 28.1352397008 16.8795370266
Na 17.0197951343 31.0966181429 19.6710346225
Cl 19.7143333286 31.0014476395 19.6518346375
Na 19.73785176 28.1382717246 19.8034174058
Cl 16.9974507838 28.2241078589 19.6845093196
Na 19.7442196504 31.0043434815 17.0048827358
Cl 17.0067188803 31.028189668 16.8719964295
Na 16.8697445984 28.1390274446 22.5491348452
Cl 19.7845789445 28.1068044679 22.6026839062
Na 16.8832587943 30.9922803273 25.4799131835
Cl 19.6771346195 31.0704569252 25.3582245456
Na 19.813626761 28.260296044 25.3198323161
Cl 16.8220376847 28.2977127581 25.4781753511
Na 19.6888644933 30.9699013961 22.6142438073
Cl 16.9808779984 31.0077611543 22.6066278864
Na 17.0110113665 28.2608880779 28.1895181842
Cl 19.8131114082 28.1645807651 28.1123539714
Na 16.8213712852 31.0790189802 30.970394833
Cl 19.7212320254 31.0594689404 30.9245789595
Na 19.7429370655 28.1242438285 30.9450166259
Cl 16.9340957906 28.2461278201 30.9923135302
Na 19.6828663812 31.0136734749 28.1819378221
Cl 16.9188239089 31.1067585547 28.2274623829
Na 22.4791209519 33.7645974823 33.746270086
Cl 25.4011218461 0.0544886836264 33.83796616
Na 22.5419140608 2.89804473816 2.72589008175
Cl 25.4735112678 2.84833911358 2.88514625021
Na 25.433911351 0.0769949196323 2.74082227232
Cl 22.5240085344 0.0195817249341 2.77860355741
Na 25.3984787039 2.90021161105 0.0346390611612
Cl 22.4723344626 2.74462320779 0.0947024652028
Na 22.4740895819 0.0684940432175 5.73732810644
Cl 25.3124374548 0.0408122380429 5.70160496114
Na 22.6502874343 2.88861906348 8.50975198575
Cl 25.4340719013 2.87562272689 8.37822254494
Na 25.3475566881 0.0710320886888 8.50758016537
Cl 22.6503193186 0.0682502195642 8.4904074659
Na 25.3866697614 2.741567753 5.62676396637
Cl 22.6523894382 2.72928384335 5.73285923983
Na 22.4787561399 0.053111295729 11.2059478991
Cl 25.3432611735 33.8012556376 11.2510196553
Na 22.6317462944 2.75617628665 14.1742695582
Cl 25.3550041733 2.73430796745 14.1756299117
Na 25.4334273246 33.8294293584 14.1307848864
Cl 22.5954500038 33.8199765218 14.1096593013
Na 25.3607555866 2.81579796289 11.3206662794
Cl 22.5430104849 2.80081346359 11.3343633267
Na 22.5184500959 33.8091684689 16.9055356734
Cl 25.3255698384 0.0741977251167 16.9000369891
Na 22.5256637395 2.73243461292 19.6847258553
Cl 25.4007549852 2.72964246369 19.8342649295
Na 25.4791430969 33.7682412318 19.6500636503
Cl 22.5439586279 33.7931574004 19.6730607131
Na 25.3005782237 2.81756541465 16.9953634404
Cl 22.6571948337 2.78776125344 16.8993551502
Na 22.5906358363 33.8168189855 22.6410886725
Cl 25.4386317588 0.0181734981327 22.5917945109
Na 22.6025604538 2.85217072858 25.350189733
Cl 25.3881413521 2.77910725172 25.3367452521
Na 25.4148126266 33.8254698257 25.4481522806
Cl 22.5040127693 33.7921671873 25.4530068566
Na 25.3516144721 2.91445675646 22.4864560297
Cl 22.6314300476 2.83049374884 22.5673359363
Na 22.5666841267 33.7764851647 28.2551094727
Cl 25.3607154531 0.0252512454271 28.2283384456
Na 22.6335377924 2.90535006708 31.0274438123
Cl 25.3212130822 2.82507431504 31.1198207507
Na 25.3384227914 33.7872925475 31.0680598847
Cl 22.6381026094 33.7790632666 31.06256666
Na 25.47070272 2.83269927619 28.2769637834
Cl 22.596830595 2.85353592674 28.1270443512
Na 22.5052652832 5.58797979123 33.8143608874
Cl 25.3055497217 5.57896286071 0.0635268989493
Na 22.5125665241 8.37175420037 2.75395909452
Cl 25.3294153124 8.39083720552 2.78629429605
Na 25.3392412869 5.69648823139 2.80235767954
Cl 22.6115645839 5.68309727836 2.78733236918
Na 25.3298894893 8.553073311 0.031661934074
Cl 22.480681284 8.51360740419 33.7459614391
Na 22.5835039947 5.71415107459 5.55034696405
Cl 25.3917870448 5.55239154347 5.7047447009
Na 22.6147884657 8.3898497216 8.42561149955
Cl 25.3345345156 8.45843281016 8.46629918872
Na 25.335346755 5.68205909851 8.39880010067
Cl 22.4700697123 5.70154231652 8.39210367566
Na 25.470756529 8.49598404535 5.61042828647
Cl 22.5100526867 8.44625425929 5.57815852519
Na 22.523194776 5.57830446117 11.1839401112
Cl 25.3754414659 5.68882399221 11.3426078509
Na 22.5171650601 8.52611710238 14.1451841055
Cl 25.4212824418 8.45327360929 14.1059594572
Na 25.305584244 5.71140567525 14.131143098
Cl 22.5339124962 5.61949265071 14.0849769314
Na 25.3636215196 8.39431861147 11.2258699976
Cl 22.492857327 8.50463620199 11.1890389843
Na 22.5463973575 5.54863829571 16.8489538443
Cl 25.3607249827 5.58788851136 16.8574707812
Na 22.5508615153 8.43166435157 19.6789253285
Cl 25.3358893172 8.38840998753 19.7593215679
Na 25.3676600131 5.64741335388 19.7546464605
Cl 22.6334285736 5.60954656323 19.7518793107
Na 25.3397121398 8.41862916273 16.9001571459
Cl 22.5305283807 8.49754646397 16.9046275817
Na 22.4700071932 5.54004969374 22.5447203794
Cl 25.3619722564 5.6592097856 22.5281539633
Na 22.6341482196 8.4823433142 25.4258568066
Cl 25.3100794301 8.40772901338 25.3610306477
Na 25.4022501377 5.57550977163 25.4362952349
Cl 22.5252626644 5.69012514998 25.4127684019
Na 25.2979349565 8.49470275789 22.6197086344
Cl 22.6593914598 8.42780080834 22.4671741953
Na 22.531698002 5.65702800811 28.2081746635
Cl 25.2862552485 5.54623436002 28.187864772
Na 22.6355505618 8.37427854682 31.085917845
Cl 25.3872265863 8.53654788468 30.9912774472
Na 25.4432008721 5.65137886264 30.9513024964
Cl 22.5002163169 5.73407347542 30.980864581
Na 25.2886819089 8.4482128424 28.2165616299
Cl 22.5982337297 8.36011736708 28.1378697074
Na 22.4611929634 11.2217911204 0.0276060773376
Cl 25.3410898289 11.2188863748 0.0525089045256
Na 22.566675333 14.1275532563 2.88069484074
Cl 25.3275281662 14.0118018285 2.85270427004
Na 25.4391797978 11.2835397823 2.88175535241
Cl 22.5322620449 11.3230315389 2.82538664149
Na 25.3454891859 14.1340960188 33.7645311815
Cl 22.5593776507 14.138674645 0.0432841663831
Na 22.4840682507 11.3286789691 5.56173146639
Cl 25.4394814386 11.3121472524 5.58775329169
Na 22.5739092946 14.1839406181 8.36999725821
Cl 25.4224271687 14.1354869645 8.48486856212
Na 25.4058476961 11.2432999132 8.36447121122
Cl 22.5370452629 11.3520656121 8.464344296
Na 25.3346198303 14.0461914506 5.64458069765
Cl 22.6227799499 14.0085159999 5.55703328154
Na 22.5562071878 11.3347359621 11.3140222902
Cl 25.4085738933 11.3397308875 11.2223411408
Na 22.5703213613 14.0838005459 14.1626641119
Cl 25.4733844367 14.1652447493 14.1128943147
Na 25.4637766356 11.2020386192 14.1158780723
Cl 22.6386664749 11.3099063415 14.1193498054
Na 25.3815216451 14.0173828772 11.2054023388
Cl 22.6105944718 14.0481545653 11.3399976722
Na 22.4788671086 11.3342942243 16.9086879942
Cl 25.4407700085 11.1829236409 16.9701177556
Na 22.5422547152 14.1938916544 19.6903039868
Cl 25.3612354134 14.1330637586 19.7811615892
Na 25.4175730195 11.3462672148 19.8273765311
Cl 22.6045182766 11.2826866268 19.7893283092
Na 25.4762843931 14.0007914495 16.9728351076
Cl 22.5465194615 14.1367646423 16.8632148634
Na 22.5057572711 11.3345587985 22.6121126464
Cl 25.4127909687 11.1887971698 22.5476536478
Na 22.5124722363 14.0123557425 25.3203668546
Cl 25.4069903501 14.0631408751 25.4510312121
Na 25.4227090624 11.2263610961 25.4545132164
Cl 22.4717130456 11.2529249512 25.3928285736
Na 25.3949640082 14.0180261172 22.6040923871
Cl 22.64963106 14.1443253418 22.579520383
Na 22.5156767539 11.2506932422 28.1058994791
Cl 25.3343535331 11.2977605845 28.2038628877
Na 22.4846244223 14.0690534507 31.0302673279
Cl 25.3850648065 14.0274570853 31.0861814259
Na 25.4514036963 11.3516662185 31.0477453553
Cl 22.6125709945 11.3380300007 31.0195252936
Na 25.3130110473 14.0783089412 28.2364222658
Cl 22.608067958 14.0222905492 28.1232702691
Na 22.5270895148 17.016581037 33.7680339985
Cl 25.2887461407 16.8604640647 0.0490956474297
Na 22.648448193 19.6469255238 2.73523926388
Cl 25.431099981 19.726960753 2.7496276497
Na 25.443499433 16.8435186523 2.81161788647
Cl 22.5058427253 16.9906900003 2.8087481709
Na 25.468590409 19.7747628016 33.7671614816
Cl 22.5562646494 19.8068953092 33.767984009
Na 22.6165639917 17.0197729849 5.59348374925
Cl 25.3165785726 16.9495865161 5.56126058479
Na 22.6183305105 19.6759738267 8.47432499845
Cl 25.2855420003 19.6786225337 8.49916575479
Na 25.401814033 16.8482598207 8.39802650868
Cl 22.6068748707 17.0197680976 8.41271032669
Na 25.4386107416 19.6512854277 5.63428813593
Cl 22.6448619006 19.7595104678 5.60988655384
Na 22.6038802276 16.9339268225 11.2809862966
Cl 25.4425124859 16.9759541489 11.2683241318
Na 22.5937949686 19.7577152603 14.0675621111
Cl 25.3160094631 19.7506708904 14.0647349054
Na 25.4327375615 16.9889159803 14.1319620999
Cl 22.5123350677 16.9174746302 14.1871557334
Na 25.3661429347 19.6978995521 11.3385300474
Cl 22.6518654387 19.7554380252 11.3023569361
Na 22.5761805461 16.9416136025 16.9749500227
Cl 25.3651273883 16.9223315824 16.8440870822
Na 22.5625416993 19.8109956381 19.6569733369
Cl 25.4615040293 19.6676859222 19.7308143433
Na 25.3954791217 17.0158931884 19.7760003907
Cl 22.5789662729 16.9479569957 19.7125973163
Na 25.4738172972 19.8291209476 16.8759383333
Cl 22.4712851251 19.6834886174 16.8302517908
Na 22.6321269619 16.891306889 22.6393220962
Cl 25.380328959 16.8320782347 22.635038481
Na 22.5043918028 19.7843996051 25.2868366338
Cl 25.2845152109 19.7083738431 25.3892091221
Na 25.4440628231 17.011161281 25.2900827795
Cl 22.4983137604 16.9406949116 25.3824659965
Na 25.371812379 19.8138221097 22.6204965826
Cl 22.5505326349 19.6838187493 22.4659883478
Na 22.5297553705 16.9755899437 28.1161828959
Cl 25.4372815482 16.857767695 28.2808437308
Na 22.484643486 19.7043316965 30.9837491294
Cl 25.4795297523 19.7118421802 31.0687884819
Na 25.3488559628 16.911809921 31.0482936448
Cl 22.5621813582 16.8651009121 30.953384731
Na 25.4687390602 19.7603719548 28.1905518828
Cl 22.5455286573 19.8220521677 28.1470845435
Na 22.5042660018 22.6021253429 33.8111471229
Cl 25.3948974264 22.5053548347 0.0855754996532
Na 22.6250171013 25.4440055537 2.72843640558
Cl 25.2841763502 25.2942214914 2.78884226626
Na 25.3450022849 22.6302068204 2.88844828899
Cl 22.6269579403 22.5566052372 2.83178574535
Na 25.3672813208 25.3538774683 33.7569827905
Cl 22.6203020992 25.3960227616 0.00908500468268
Na 22.5657744796 22.4922533341 5.7057557821
Cl 25.4152024014 22.5492811378 5.61092858871
Na 22.4743642229 25.4525627703 8.48471479668
Cl 25.4330064072 25.4525099648 8.43028214988
Na 25.3612228525 22.6430693369 8.38159869854
Cl 22.5495216783 22.5887673545 8.38794252938
Na 25.3471658018 25.3328067324 5.72937576455
Cl 22.4602300927 25.320207272 5.73676553381
Na 22.5185528719 22.5008352733 11.3436917473
Cl 25.4352390638 22.538275811 11.2673503999
Na 22.5251290938 25.4464825879 14.0320777977
Cl 25.3832078006 25.3475598284 14.0085454311
Na 25.4585102685 22.5321756775 14.1052778792
Cl 22.5263647218 22.4956805768 14.1028094747
Na 25.3731619619 25.428210178 11.3391065651
Cl 22.5886870036 25.2959401044 11.2298682152
Na 22.4956486999 22.470344529 16.9642105707
Cl 25.3461168863 22.5633693621 16.9182496442
Na 22.5468054349 25.4656846518 19.7473990583
Cl 25.3076324078 25.2981452486 19.736202458
Na 25.3024588789 22.5805452088 19.7408287205
Cl 22.6291586637 22.5898753865 19.8216740712
Na 25.4119769087 25.4439928955 16.9322418746
Cl 22.555368664 25.4407691118 16.9925054498
Na 22.5688319318 22.6390366561 22.5654719022
Cl 25.4222522963 22.5195340689 22.623700863
Na 22.4725944424 25.410144356 25.4494358944
Cl 25.3139628322 25.3119686318 25.280067627
Na 25.3571508778 22.5263521744 25.4603488729
Cl 22.6411499834 22.5924967111 25.4058797484
Na 25.4559014859 25.4118212375 22.4890864316
Cl 22.4982938472 25.3447128662 22.6265877575
Na 22.6377068274 22.6079703434 28.2564355605
Cl 25.2988981761 22.5819698605 28.2180582284
Na 22.5175015919 25.4784199997 30.9230011669
Cl 25.3463481141 25.4355229535 30.9845810414
Na 25.2955812586 22.5903103149 31.0038783317
Cl 22.5150975362 22.4841250797 31.1092134567
Na 25.4189097741 25.4667658823 28.28707988
Cl 22.5122461736 25.2959962292 28.2819813964
Na 22.5864119001 28.1578336428 33.8143594313
Cl 25.3777903378 28.2224201531 33.7542899562
Na 22.5066815804 30.9463396739 2.89550841239
Cl 25.3731673642 31.070289585 2.86218591993
Na 25.3182938144 28.2161740432 2.74680626728
Cl 22.5105545252 28.246107208 2.78185542102
Na 25.4248464743 30.9664939927 0.0681492263849
Cl 22.5963948078 31.0738014483 0.0740998631712
Na 22.5710491439 28.1515546 5.63310528812
Cl 25.2849227103 28.1890831967 5.62024223488
Na 22.4696149264 30.9393008595 8.48837884221
Cl 25.29097612 30.998130446 8.42212754074
Na 25.2819533377 28.1148779151 8.52540706111
Cl 22.6074861128 28.1534506905 8.50320238957
Na 25.3079343836 31.0658472036 5.56447078205
Cl 22.5785541858 31.1195400969 5.72805913479
Na 22.4761915454 28.2188080508 11.2752194328
Cl 25.2902869653 28.2408790779 11.2811428311
Na 22.5852684328 30.9471768618 14.0386178078
Cl 25.4226463793 31.1052917674 14.0711970595
Na 25.4767912866 28.1438112631 14.0376056911
Cl 22.6056835724 28.1514783151 14.1908610354
Na 25.2894341541 31.0336056627 11.3404824178
Cl 22.6082279282 31.1119462461 11.2257614488
Na 22.5832285701 28.1260359141 16.8491039315
Cl 25.4280189938 28.239085578 16.9750036274
Na 22.6346061661 30.9573602731 19.7830310829
Cl 25.4422808463 30.9686053902 19.7378593795
Na 25.3439688362 28.1196594492 19.8120592378
Cl 22.610438559 28.1021613096 19.7201180558
Na 25.4435830787 31.1117156208 16.8690301434
Cl 22.650391267 31.0135074459 16.8299061484
Na 22.4629380665 28.1192073327 22.5702665998
Cl 25.478670258 28.2661329217 22.6532224874
Na 22.6460763224 31.0991238067 25.4426618932
Cl 25.4029290652 31.0586185655 25.4691903952
Na 25.4094392192 28.1172034098 25.3863926368
Cl 22.6181973879 28.1226240095 25.2955947689
Na 25.4498128843 30.9378616582 22.4907638075
Cl 22.5633511442 31.0330840448 22.6171832942
Na 22.6049602676 28.1148943115 28.2122383539
Cl 25.4175358438 28.2978512937 28.2595578658
Na 22.639950506 30.9856184161 31.0243721293
Cl 25.2909228079 31.0800335172 31.0386274054
Na 25.419552914 28.2995154279 31.0833690525
Cl 22.5050468173 28.1176315739 30.9878592962
Na 25.4153182924 30.9278642321 28.2601487014
Cl 22.5797907082 31.0860902232 28.1683022656
Na 28.1647657091 33.7635940638 33.7714067894
Cl 30.9782230636 33.8053940947 33.8228327475
Na 28.1925327033 2.90859563939 2.90323219033
Cl 30.9384507989 2.75454609903 2.82996053363
Na 30.9759511324 33.8070140202 2.91952079001
Cl 28.2917615325 33.7573327457 2.85237862306
Na 31.1107862406 2.75925062755 0.0156018494649
Cl 28.190402987 2.75420959311 0.0540425021825
Na 28.2723245535 0.0727207346771 5.64037755698
Cl 30.9769999103 33.8159971298 5.62600392323
Na 28.211925275 2.85562164587 8.46056212006
Cl 31.0901855927 2.83630306315 8.54382431709
Na 31.0931053531 33.7856123922 8.40778401858
Cl 28.2153358386 0.0468073858658 8.41475403411
Na 31.1047825389 2.8007835108 5.61289565597
Cl 28.2631793809 2.74487825078 5.73922244161
Na 28.2877803324 0.0764796859651 11.2781067888
Cl 31.0968854671 33.8294868882 11.2085878651
Na 28.2729293428 2.83631778612 14.0391526684
Cl 30.9707342734 2.8388702229 14.0591635021
Na 30.9555796579 33.8001654702 14.017841183
Cl 28.2334598883 0.04316378614 14.0509973367
Na 31.0822693249 2.90261519234 11.3621543956
Cl 28.2328966991 2.80917264079 11.1913070412
Na 28.2958234308 0.0608929936334 16.869790623
Cl 31.079996247 33.7515397641 17.0171682876
Na 28.1245965978 2.74064776178 19.8073701273
Cl 30.9338484044 2.78412268424 19.6841050933
Na 30.9688551776 33.8141657715 19.7597607229
Cl 28.2050404523 0.0966781564401 19.8195525225
Na 31.0005835507 2.84725725995 16.9723569075
Cl 28.1214152357 2.84399657908 16.9654868837
Na 28.2383215787 33.7462765921 22.649122014
Cl 30.9201923101 33.7591371793 22.5036865654
Na 28.231029365 2.82038850092 25.2837999073
Cl 30.9818681416 2.75969739848 25.4178109927
Na 31.0934215193 0.0686553828931 25.3090131109
Cl 28.1673261165 33.7659156295 25.4512622606
Na 31.0975790553 2.87304028961 22.5964786949
Cl 28.2053529296 2.90170716184 22.4781475999
Na 28.2685070657 33.8231545458 28.2273407851
Cl 31.0563169365 33.824135484 28.1297704312
Na 28.2371662012 2.82131573679 31.0101468781
Cl 31.0928172644 2.89990062337 30.9628746003
Na 31.0135634299 33.7755443556 31.0355158348
Cl 28.1925557185 0.0398897263202 31.1022082172
Na 31.0103477269 2.91221671603 28.1491633961
Cl 28.2700942025 2.84317191664 28.1707085374
Na 28.1190565136 5.64960408491 0.0769005028615
Cl 31.0232632465 5.58390058596 33.8215231852
Na 28.2969256225 8.49954479179 2.89896374155
Cl 30.9207511471 8.36823804405 2.83444577892
Na 30.980524027 5.70310756561 2.85167505119
Cl 28.182445797 5.65959965407 2.88163354856
Na 31.031470596 8.37230011912 33.8129824815
Cl 28.1866591667 8.42028278169 0.01247727765
Na 28.240941335 5.66790847029 5.606424112
Cl 31.0814171125 5.65468939097 5.63829226547
Na 28.1373101107 8.55017111314 8.38814708108
Cl 30.9852084294 8.48913661094 8.50608664635
Na 30.9449873098 5.72393583735 8.5537049481
Cl 28.270097986 5.66704027427 8.4689074153
Na 31.1113625468 8.49978278143 5.71750122095
Cl 28.2400750183 8.3630148228 5.58769205945
Na 28.2254741193 5.70777651159 11.3242056606
Cl 31.0356244229 5.56315715102 11.2917784985
Na 28.1688364859 8.47055016432 14.1060051572
Cl 31.0771741706 8.53205426492 14.0002806631
Na 31.012619082 5.6768532113 14.0709608096
Cl 28.2581707277 5.541432355 14.0329723005
Na 31.0287318907 8.37222459958 11.314000118
Cl 28.2844815513 8.52685819077 11.3200141506
Na 28.2827334258 5.68455328897 16.9595944461
Cl 30.9206918655 5.57805457308 16.9549585231
Na 28.2573526324 8.55340205684 19.7959979717
Cl 30.9735160433 8.43127839418 19.7995187477
Na 31.0266917193 5.58800915648 19.7063993688
Cl 28.16891463 5.6343716322 19.8371101106
Na 30.9942718033 8.41396701282 16.898378389
Cl 28.2621145121 8.37545007109 16.9706284484
Na 28.2792045811 5.60544236259 22.6500543852
Cl 31.0991582195 5.73481233592 22.6522526502
Na 28.1633780896 8.54764772974 25.3222938526
Cl 31.0445308539 8.47967525634 25.3358446104
Na 31.0853883258 5.55486368576 25.4641608606
Cl 28.1195089826 5.72587111598 25.2942983798
Na 31.0665823818 8.38957831329 22.4847655847
Cl 28.1696180098 8.38250043389 22.4663433128
Na 28.1206013244 5.55674260707 28.2859551241
Cl 31.109069847 5.58619484475 28.2306872434
Na 28.1152758713 8.45063570447 31.0422892043
Cl 31.0799777418 8.53790236852 30.9369211077
Na 31.0271263516 5.701784517 30.9715331449
Cl 28.1439394003 5.73483497259 31.0593919194
Na 30.9522564365 8.4006552261 28.2192953921
Cl 28.2566024106 8.55064954947 28.2115866455
Na 28.1491455717 11.230362446 0.0978466203914
Cl 31.1000057761 11.2918249069 33.8387115033
Na 28.1386240242 14.0911495353 2.86348240618
Cl 30.9643655751 14.0697134509 2.78744380053
Na 30.9315528991 11.3117493567 2.76409715562
Cl 28.2813549404 11.3775839608 2.72937316557
Na 31.0818541661 14.0578355637 0.00264294235377
Cl 28.2426760624 14.1387543014 0.0306727066281
Na 28.1485156204 11.1871694013 5.70734654066
Cl 30.9968279191 11.3531892068 5.67838247083
Na 28.167687395 14.0639772022 8.44427416932
Cl 31.0434125514 14.1109050546 8.51407376678
Na 31.0786811847 11.2440549668 8.41483488978
Cl 28.2026631162 11.2220113875 8.45906834287
Na 31.0297860333 14.0421647737 5.65773630444
Cl 28.2282706267 14.0227422539 5.7050354379
Na 28.1938848996 11.2523303495 11.2916259935
Cl 30.943077626 11.2797191789 11.2013944801
Na 28.1200516766 14.1790776147 14.1175838024
Cl 31.068087942 14.0298708388 14.0115037321
Na 31.0122757342 11.241973212 14.0168076021
Cl 28.1348116614 11.2982195884 14.0155210586
Na 31.1084933673 14.0021741495 11.253377279
Cl 28.1816574757 14.0389819567 11.3218862124
Na 28.2904117032 11.2456864444 16.8359535842
Cl 30.9795169451 11.206013261 16.9896312696
Na 28.1572869042 14.1202351219 19.691170407
Cl 30.9275701218 14.1043076603 19.7917696974
Na 31.0885903409 11.2400024512 19.6546325014
Cl 28.1526324515 11.2764618921 19.8193095347
Na 31.0856892754 14.0366564699 16.9295306973
Cl 28.2117342017 14.0767025675 16.9359524548
Na 28.2863061931 11.2013974649 22.6478144876
Cl 31.0273958104 11.3247633178 22.5302286099
Na 28.1097411024 14.0405759542 25.3169956575
Cl 31.0171116721 14.0967137887 25.4031662442
Na 31.0284584386 11.3595833786 25.4447843313
Cl 28.266890495 11.306905478 25.4736801693
Na 31.1184671941 14.0003889842 22.5601436494
Cl 28.1355943468 14.1846974987 22.5104836815
Na 28.266405152 11.2588916908 28.1139374474
Cl 31.0080299841 11.3133826892 28.2250160871
Na 28.2007321733 14.0336263665 31.1179810765
Cl 31.0550885267 14.1355603264 30.952200875
Na 31.0943152876 11.2253876418 31.0234335157
Cl 28.1121786083 11.3057416132 31.0545543357
Na 31.0978347589 14.1407554524 28.2669851336
Cl 28.1645897005 14.1874152775 28.1391033949
Na 28.1042672225 16.9670573069 0.060619452109
Cl 31.0899106618 16.8587662371 0.0806561206216
Na 28.2271773794 19.6538890083 2.90886035253
Cl 30.9897040271 19.6774109243 2.79813369612
Na 31.067346549 16.934524052 2.8839663369
Cl 28.2149973303 16.9954590798 2.76709244095
Na 31.007570791 19.7450707924 33.7626112665
Cl 28.2398212382 19.7737466195 33.799966657
Na 28.1948433457 17.0131368755 5.67690103603
Cl 31.0456402642 16.9004596718 5.64120196617
Na 28.2848923082 19.7711740604 8.52154991546
Cl 31.0523568907 19.6536407498 8.39363585504
Na 30.9311238533 16.863461252 8.37124891871
Cl 28.2602601337 17.0095779994 8.40587163946
Na 30.9433594897 19.7253923866 5.6379711548
Cl 28.2569701252 19.7199104836 5.70822326846
Na 28.2919836949 16.8961084166 11.3697927173
Cl 31.0003995985 16.9718459968 11.320743384
Na 28.1546849873 19.6479326308 14.0579376666
Cl 30.9423654111 19.7574485713 14.0034864094
Na 31.0600592843 16.9324471946 14.0928016163
Cl 28.2944580197 16.9833642451 14.0022135581
Na 30.9306936934 19.7638645833 11.3265440277
Cl 28.2349560577 19.6640265164 11.3245529032
Na 28.2665666617 16.9464289545 16.9734016656
Cl 31.0015813761 16.856132354 16.9751332739
Na 28.1199894031 19.6651742373 19.7953502608
Cl 30.9240464017 19.6738563797 19.7691683453
Na 31.0238857373 16.9635167721 19.7019909434
Cl 28.2624549649 16.9620666862 19.7481378394
Na 30.9562804792 19.7102334263 16.8600854828
Cl 28.2228606659 19.8043062222 16.8702442795
Na 28.2848199205 16.9387599944 22.6228725239
Cl 31.0492623691 16.8747475295 22.6457700124
Na 28.2836748509 19.7228909704 25.4317121226
Cl 31.0798016522 19.7563262864 25.3810250202
Na 31.000632479 16.9303889064 25.3414021042
Cl 28.1435413595 16.9378068996 25.28873887
Na 31.0217021948 19.8075331685 22.4658732877
Cl 28.2670161444 19.8321974482 22.4792127035
Na 28.1145203367 16.8260603643 28.2163742226
Cl 31.0010670769 16.9547079903 28.1366442716
Na 28.2398711714 19.7248282649 31.1098580608
Cl 31.0579436866 19.7569788045 31.0264366082
Na 31.002898221 16.8419757523 31.0806012181
Cl 28.229568457 16.8610048259 30.9277770819
Na 30.9411704959 19.6429499798 28.2930647933
Cl 28.2175508333 19.7231211166 28.1744870262
Na 28.264090506 22.5530039822 0.0861375841393
Cl 31.0505336 22.5027999421 0.0767322775341
Na 28.2478672218 25.3215169585 2.84248835003
Cl 31.0252424708 25.3142033108 2.82196893278
Na 31.0979118216 22.623662781 2.89630752903
Cl 28.2954338619 22.6595293578 2.87168226956
Na 31.1163787784 25.3079574023 33.8299560412
Cl 28.1254796779 25.3687258974 33.7499436499
Na 28.103965276 22.5606985418 5.62287974271
Cl 31.0759294622 22.4997389593 5.56624329758
Na 28.1253866447 25.4116148912 8.39570801632
Cl 30.9758349162 25.4167013965 8.45744221733
Na 30.9740954751 22.5628457469 8.38995812694
Cl 28.1638197643 22.6226985661 8.53669551024
Na 31.1098396955 25.3543105727 5.59347884151
Cl 28.1072027216 25.4043801837 5.6063111507
Na 28.1087652557 22.5673774955 11.2142506496
Cl 30.9517887531 22.4697612224 11.3619080032
Na 28.2091749904 25.3053184825 14.0294484211
Cl 31.1075709426 25.2951245634 14.1234998063
Na 30.9259798503 22.5363355601 14.1884769509
Cl 28.1733791315 22.5489130688 14.0141767601
Na 30.9343422609 25.3947486612 11.3707912654
Cl 28.2734316099 25.4100916952 11.3757128137
Na 28.1863499524 22.6515546225 16.9248238814
Cl 30.9326905865 22.5529089863 17.0133626302
Na 28.1833498742 25.4770860637 19.7177847506
Cl 30.9523285022 25.3309062295 19.6879394229
Na 31.0364926308 22.4918809322 19.7116779938
Cl 28.2941003199 22.4831066972 19.7705024754
Na 30.9652936243 25.3610560778 16.8355664453
Cl 28.2509437125 25.44987522 16.9716901512
Na 28.1657281387 22.5682186263 22.5227316107
Cl 31.1158779088 22.545430085 22.6236759661
Na 28.1179672433 25.4694118679 25.4570408444
Cl 31.0581290903 25.3764014101 25.4159016265
Na 31.0871517503 22.4866482254 25.4149608745
Cl 28.2105774948 22.5867297698 25.3320703531
Na 31.1029607889 25.3818654367 22.5747833979
Cl 28.2198253454 25.321198959 22.4911741188
Na 28.2257170933 22.5000076158 28.1296684619
Cl 31.0334558581 22.6532175499 28.2755025004
Na 28.2009364502 25.4227139531 30.9649052486
Cl 30.9660185791 25.3938397768 31.0943001771
Na 31.1094813422 22.6342611374 30.9639822027
Cl 28.2834917161 22.5016560065 31.0432837589
Na 31.0773616423 25.3359993555 28.2419328058
Cl 28.2033208898 25.4108400813 28.2491033142
Na 28.1807277225 28.224839058 0.0261254676999
Cl 30.9535169452 28.1692346452 33.7565735624
Na 28.2513917959 31.0346675496 2.79607543257
Cl 30.9261687284 31.0307782539 2.82838067692
Na 31.0117354027 28.2655686729 2.72270862865
Cl 28.2844831161 28.2947427381 2.74988627021
Na 31.0941310716 31.0429486115 0.0820758653253
Cl 28.2494207636 31.0529133018 0.0564215621002
Na 28.156310709 28.1995723726 5.63786050626
Cl 30.9517918137 28.1458431605 5.5432102234
Na 28.2766938434 30.9292966135 8.37868512914
Cl 31.0596201172 31.0930175187 8.49937322029
Na 31.0625420761 28.1747434624 8.5167476324
Cl 28.2546214853 28.1719513632 8.54440717733
Na 31.0114276858 31.0545288823 5.62023013085
Cl 28.2147269758 30.93722043 5.62413178975
Na 28.2525693926 28.2677781364 11.2481793209
Cl 30.930970959 28.1337543451 11.236599195
Na 28.1989670047 30.9726313725 14.0740754726
Cl 30.9234338856 31.0028304773 14.139284213
Na 31.0097808298 28.1388039603 14.1860653776
Cl 28.1368453555 28.2736653689 14.0381317955
Na 30.9501803802 31.0175514538 11.3120614765
Cl 28.1905954341 31.0216304793 11.3046931444
Na 28.1966655306 28.2913709209 16.8502641643
Cl 30.9982676879 28.1255451814 16.8595114337
Na 28.2240077858 31.0933101346 19.710954554
Cl 31.0909519992 30.9960283869 19.7818595713
Na 30.942184928 28.2103392619 19.6477277374
Cl 28.1285864841 28.1608627665 19.6498074899
Na 31.0944817921 31.0842614427 17.006364743
Cl 28.1449458189 31.0092271962 16.9817961501
Na 28.1552378783 28.2294672841 22.5290516663
Cl 30.9953789081 28.2350745056 22.6478682914
Na 28.2619936196 30.9896091063 25.293843211
Cl 31.1137977987 30.9880447698 25.423868862
Na 30.9314749981 28.1023567963 25.408318563
Cl 28.2728351418 28.1865224689 25.4074717211
Na 31.0605869802 31.0899092674 22.4781836498
Cl 28.2069067634 31.0084587532 22.5280515194
Na 28.1741387481 28.183089482 28.1344064857
Cl 31.0927396782 28.1577574149 28.1799444603
Na 28.2169620559 31.0572491608 31.0181063507
Cl 31.0085270959 30.9933281385 31.0208243857
Na 30.966659861 28.1040518752 31.1030314763
Cl 28.1377057468 28.1801049747 31.0277118052
Na 30.987176941 31.0055843659 28.1784452307
Cl 28.1906164144 31.0737225613 28.2047451845
