ITEM: TIMESTEP
0
ITEM: NUMBER OF ATOMS
64
ITEM: BOX BOUNDS pp pp pp
0.0000000000000000e+00 1.1279999999999999e+01
0.0000000000000000e+00 1.1279999999999999e+01
0.0000000000000000e+00 1.1279999999999999e+01
ITEM: ATOMS id type x y z fx fy fz
1 1 0.00628651 11.2734 0.0320211 -0.0673177 -0.0269496 -0.00657468
2 2 2.82525 11.2532 0.0180798 0.0243621 0.0939096 -0.0503182
3 1 0.0652 2.86735 2.78481 -0.226606 -0.0465977 0.117061
4 2 2.75673 2.78884 2.82207 0.178232 -0.0306994 0.072309
5 1 2.70375 11.2691 2.7577 0.180797 -0.0480701 0.118696
6 2 11.2434 11.2528 2.80418 -0.0477122 0.0941259 0.0844839
7 1 2.84058 2.87213 11.2736 0.05394 -0.054799 0.0147053
8 2 0.0683232 2.78674 0.0175755 -0.154362 0.023737 -0.0477118
9 1 0.0451735 0.00470061 5.60283 -0.153873 0.0572383 0.0698313
10 2 2.77391 11.2571 5.65101 0.175207 0.157593 -0.0360351
11 1 11.2295 2.80954 8.45204 0.0915301 0.00122555 0.117402
12 2 2.84704 2.83073 8.47777 -0.0890458 -0.0709042 -0.0256403
13 1 2.78731 11.2735 8.4992 0.137696 0.0174542 -0.04292
14 2 0.0746716 11.217 8.5357 -0.241583 0.287496 -0.138977
15 1 2.88729 2.85907 5.65322 -0.153136 -0.0690416 0.0243853
16 2 11.2643 2.8929 5.73801 -0.0293378 -0.259703 -0.216605
17 1 0.0900817 5.70576 0.017869 -0.21676 -0.0753536 0.0140061
18 2 2.75958 5.63978 0.0328237 0.246322 0.0800269 -0.0287135
19 1 11.2156 8.47976 2.84149 0.085258 -0.0846391 -0.00240836
20 2 2.8548 8.40079 2.78691 -0.178463 0.165264 0.0924135
21 1 2.79818 5.58151 2.90697 -0.0294602 0.0910442 -0.100279
22 2 11.2552 5.65645 2.80707 0.030468 -0.0242961 0.116597
23 1 2.89917 8.52602 0.0316676 -0.171845 -0.193381 -0.0801861
24 2 11.1698 8.4626 0.0341843 0.245485 0.0811061 -0.0399979
25 1 0.0501981 5.6091 5.7311 -0.160679 0.133621 -0.0594176
26 2 2.75398 5.60692 5.68675 0.209288 0.0988657 -0.028944
27 1 0.00245273 8.56012 8.46943 -0.0237998 -0.303255 0.0599951
28 2 2.78834 8.44112 8.40544 0.137892 0.0970774 0.12959
29 1 2.75612 5.67152 8.48906 0.130168 -0.0498782 0.00783179
30 2 0.0647279 5.60227 8.54446 -0.251447 0.0641996 -0.0812522
31 1 2.80563 8.53872 5.61836 -0.0154052 -0.205128 -0.0310809
32 2 11.2432 8.47249 5.69157 0.0452041 0.0156752 -0.141333
33 1 5.64805 11.2507 11.2129 -0.0376613 0.111564 0.177509
34 2 8.38992 0.0251341 0.0494857 0.175181 -0.0704064 -0.15446
35 1 5.63179 2.76628 2.86365 -0.0623384 0.142682 -0.111089
36 2 8.39598 2.78435 2.85105 0.176242 0.111598 0.0457328
37 1 8.34749 0.0193185 2.79092 0.173458 -0.0480192 0.050905
38 2 5.64546 11.2762 2.83011 -0.231914 -0.0413432 -0.00851637
39 1 8.49471 2.78208 0.0710491 -0.0352598 0.076076 -0.0610909
40 2 5.6763 2.86219 0.0582432 -0.111803 -0.118481 -0.0913136
41 1 5.67938 0.0422039 5.64378 -0.15998 -0.109702 0.00782734
42 2 8.38866 11.2732 5.60152 0.197868 0.0675627 0.117052
43 1 5.56886 2.83292 8.43157 0.109403 0.0101488 0.158595
44 2 8.40851 2.76785 8.47342 0.0819449 0.1461 0.011721
45 1 8.47793 0.0661229 8.4593 0.0290259 -0.204595 0.0394486
46 2 5.69209 0.0701132 8.51751 -0.138668 -0.194396 -0.257522
47 1 8.34173 2.88143 5.65698 0.284564 -0.0414694 -0.0258459
48 2 5.66119 2.83856 5.65914 -0.159662 0.00988921 -0.0354565
49 1 5.65597 5.62205 11.1849 -0.0673525 0.0267869 0.251046
50 2 8.45455 5.59981 0.0540082 0.0471527 0.005111 -0.158481
51 1 5.62556 8.46417 2.77752 0.00127529 -0.0542994 -0.00592927
52 2 8.43447 8.45942 2.74573 -0.0472352 0.00982364 0.306358
53 1 8.47503 5.6347 2.76071 -0.112357 -0.0163585 0.158143
54 2 5.52009 5.66565 2.80512 0.255269 -0.118519 0.0379496
55 1 8.4335 8.44819 0.0908238 -0.00937717 -0.00926836 -0.280356
56 2 5.63751 8.46433 11.2056 0.0359717 -0.0277291 0.0233274
57 1 5.72237 5.68587 5.69335 -0.166342 -0.115746 -0.126344
58 2 8.46238 5.68583 5.65855 0.0539595 -0.0658569 -0.0417084
59 1 5.67066 8.45239 8.38631 -0.017177 0.0152263 0.0493452
60 2 8.51144 8.36325 8.448 -0.153259 0.222445 0.0584011
61 1 8.44977 5.58786 8.49066 0.0909827 0.0312559 0.0253717
62 2 5.62998 5.61816 8.48599 -0.0159807 0.0475001 -0.125625
63 1 8.43617 8.52945 5.65757 0.0268817 -0.141781 -0.0563562
64 2 5.61628 8.36279 5.57461 0.0261702 0.327239 0.140449
ITEM: TIMESTEP
1
ITEM: NUMBER OF ATOMS
64
ITEM: BOX BOUNDS pp pp pp
0.0000000000000000e+00 1.1279999999999999e+01
0.0000000000000000e+00 1.1279999999999999e+01
0.0000000000000000e+00 1.1279999999999999e+01
ITEM: ATOMS id type x y z fx fy fz
1 1 -0.0139561 11.2653 0.0300441 0.0214985 0.0416049 -0.0237786
2 2 2.83257 11.2815 0.00294896 -0.0298367 -0.00521729 -0.00281893
3 1 -0.00294101 2.85334 2.82001 -0.00732407 -0.0633416 0.0417284
4 2 2.81032 2.7796 2.84381 -0.0371013 0.0852432 -0.0404967
5 1 2.75811 11.2546 2.7934 0.0382491 0.0273345 0.0606342
6 2 11.229 11.2811 2.82959 0.0287486 0.000891694 -0.0154043
7 1 2.8568 2.85565 11.278 -0.0631913 -0.0601152 0.032172
8 2 0.0219061 2.79388 0.00322847 -0.0142209 0.0807318 0.0551783
9 1 -0.00109644 0.0219123 5.62382 -0.00948716 -0.00369556 0.0554937
10 2 2.8266 11.3045 5.64017 -0.0540539 -0.0479108 0.00775213
11 1 11.257 2.80991 8.48734 0.023028 -0.00430491 -0.0185959
12 2 2.82027 2.80941 8.47006 -0.02623 0.0513056 0.0286859
13 1 2.82871 11.2788 8.48629 -0.0115328 0.00329995 -0.0534369
14 2 0.00202705 11.3035 8.49391 0.000457516 -0.0758041 -0.0460099
15 1 2.84125 2.8383 5.66056 -0.0744908 -0.0378542 -0.00312992
16 2 11.2555 2.81481 5.67288 0.0377871 0.0615679 -0.0324171
17 1 0.0249017 5.6831 0.0220807 -0.0307254 -0.0686043 0.0268268
18 2 2.83365 5.66384 0.0241895 -0.0386676 -0.0235744 -0.000801287
19 1 11.2412 8.4543 2.84077 0.0109243 0.0218781 -0.00312936
20 2 2.80114 8.45049 2.8147 -0.0211802 -0.0160241 -0.00983741
21 1 2.78932 5.60889 2.87681 0.0258694 0.021937 -0.038809
22 2 11.2644 5.64914 2.84213 0.0074977 -0.0088723 0.000386301
23 1 2.8475 8.46787 0.0075555 -0.0461883 0.0117418 -0.0296271
24 2 11.2436 8.48699 0.0221568 0.0629149 -0.0554432 -0.00984065
25 1 0.00188159 5.64928 5.71323 -0.00487445 -0.0143258 -0.0624827
26 2 2.81691 5.63665 5.67805 -0.0234017 0.0355849 -0.0232186
27 1 -0.00470393 8.46893 8.48747 0.0104941 0.0155349 -0.0294544
28 2 2.8298 8.47031 8.44441 -0.0464372 -0.0178513 0.032737
29 1 2.79526 5.65652 8.49141 0.0414818 -0.0187604 -0.0263957
30 2 -0.0108828 5.62157 8.52002 0.0348851 0.0506895 -0.0470594
31 1 2.801 8.47704 5.60901 0.0171993 0.00273227 0.049264
32 2 11.2568 8.4772 5.64907 0.0398929 -0.0169837 0.0257802
33 1 5.63673 11.2843 11.2663 -0.00549827 -0.00245777 0.00414348
34 2 8.4426 0.00396279 0.00303923 -0.00334973 -0.0203046 0.0170265
35 1 5.61304 2.80919 2.83025 0.00664304 -0.00475204 0.0194593
36 2 8.44898 2.8179 2.8648 -0.0159626 0.0132148 -0.0683778
37 1 8.39965 0.00487901 2.80623 0.0231946 -0.00850269 0.0517691
38 2 5.57573 11.2638 2.82754 0.0798892 0.00967256 -0.0452576
39 1 8.48411 2.80496 0.0526789 -0.021728 0.00053387 -0.0554656
40 2 5.64269 2.82656 0.030785 0.0173022 -0.0133809 -0.0377233
41 1 5.63127 0.00921617 5.64613 -0.00138903 0.00299021 -0.021053
42 2 8.44816 11.2936 5.63672 -0.00507896 0.00452124 0.0177371
43 1 5.60176 2.83597 8.47926 0.0584098 -0.0354379 -0.0185021
44 2 8.43315 2.81178 8.47695 0.0124891 0.0118546 0.0118467
45 1 8.48666 0.00460071 8.47117 -0.0452944 -0.0139937 -0.0314626
46 2 5.65039 0.011658 8.44007 -0.00144054 -0.0161132 0.0458534
47 1 8.4273 2.86896 5.64921 0.0309668 -0.0737331 0.0366099
48 2 5.61318 2.84154 5.64848 0.0661914 -0.00674261 -0.00639566
49 1 5.63572 5.63011 11.2604 0.0203409 0.0169585 0.024113
50 2 8.46873 5.60135 0.00635269 -0.0115048 0.0621994 0.040843
51 1 5.62595 8.44785 2.77574 -0.0279157 0.00580946 0.0371173
52 2 8.42027 8.46238 2.83785 0.0187003 -0.0239364 -0.0655082
53 1 8.44125 5.62978 2.80827 -0.0133568 0.0171046 0.0443124
54 2 5.59685 5.63001 2.81653 0.0627166 0.0139212 0.00290313
55 1 8.43068 8.44541 0.00652003 0.0287349 0.00797137 -0.00950987
56 2 5.64833 8.45599 11.2127 -0.0104985 -0.00428832 0.0932803
57 1 5.67235 5.65107 5.65535 -0.0526214 0.00388803 -0.0324519
58 2 8.47861 5.66603 5.64601 -0.0296433 -0.0164857 0.0155931
59 1 5.66549 8.45697 8.40114 -0.0383817 0.0115644 0.0342361
60 2 8.46536 8.43014 8.46556 0.00840186 0.0376507 -0.00288217
61 1 8.47713 5.59726 8.49829 -0.0530915 0.0449719 -0.0486759
62 2 5.62518 5.63244 8.44822 0.0285843 0.0141252 0.0387126
63 1 8.44425 8.48682 5.64063 0.00042109 -0.00896937 0.0143598
64 2 5.62415 8.46119 5.61685 0.0117845 -0.00324832 -0.00654546
ITEM: TIMESTEP
2
ITEM: NUMBER OF ATOMS
64
ITEM: BOX BOUNDS pp pp pp
0.0000000000000000e+00 1.1279999999999999e+01
0.0000000000000000e+00 1.1279999999999999e+01
0.0000000000000000e+00 1.1279999999999999e+01
ITEM: ATOMS id type x y z fx fy fz
1 1 -0.00740957 11.2813 0.0202147 0.0010866 0.00221072 -0.0147183
2 2 2.82128 11.2823 0.000201143 -0.0159742 0.00472029 0.00418123
3 1 -0.013143 2.82623 2.84063 -0.0089119 0.00278759 -0.00914763
4 2 2.80101 2.81311 2.82974 0.00836711 -0.00357308 0.0184069
5 1 2.77936 11.2641 2.82172 0.0128982 0.0134135 -0.00712067
6 2 11.2391 11.2845 2.82606 0.0274135 -0.00474877 0.0189722
7 1 2.83296 2.82958 11.2915 -0.0201627 -0.000773226 0.00797129
8 2 0.0112219 2.8273 0.0240261 -0.0166952 -0.0156187 -0.0120193
9 1 -0.00984995 0.0222458 5.6485 -0.00347473 -0.0260759 -0.00167004
10 2 2.81033 11.2902 5.64216 -0.00520111 -0.00306114 0.0037802
11 1 11.2693 2.80821 8.48357 0.000605869 0.0289404 0.00322044
12 2 2.80681 2.8279 8.48084 0.0185526 -0.0157767 -0.0189184
13 1 2.82845 11.2807 8.4633 -0.0190401 0.0011348 0.00568122
14 2 -0.00550539 11.282 8.47085 0.011559 0.00677793 0.00156825
15 1 2.80622 2.82079 5.66007 0.0113901 0.0212562 -0.00706855
16 2 11.2698 2.83142 5.65285 0.00354228 -0.00362969 0.0270648
17 1 0.00554751 5.65294 0.0333806 -0.0017573 -0.00842414 -0.00404524
18 2 2.82588 5.65686 0.0229481 -0.00453932 -0.0328374 -0.0083196
19 1 11.2484 8.46045 2.83943 0.00169221 -0.00388049 -0.0127597
20 2 2.78687 8.44929 2.81368 0.0306563 0.0135035 0.0153761
21 1 2.79884 5.62067 2.85791 0.00917777 0.0290126 -0.0327273
22 2 11.2684 5.64478 2.84601 -0.00951959 -0.00703301 0.00932377
23 1 2.82332 8.46644 -0.00699143 -0.00791813 -0.00488152 0.0100901
24 2 11.2769 8.46715 0.0168982 -0.0146403 0.00220054 -0.00755509
25 1 -0.00522331 5.64776 5.68606 0.00368471 0.0120293 -0.032404
26 2 2.81413 5.65421 5.66773 0.00468438 -0.0244754 -0.0170668
27 1 -0.00121897 8.46553 8.47747 0.000499766 -0.00745052 -0.00304958
28 2 2.81542 8.46619 8.46179 0.0125553 0.00292312 -0.0161433
29 1 2.8162 5.64734 8.48099 -0.000954175 0.00420093 0.00432486
30 2 -0.00480306 5.64413 8.49839 0.00402372 -0.0163144 -0.0237913
31 1 2.80746 8.47159 5.62795 -0.00105697 -0.00858207 0.0196687
32 2 11.2744 8.47083 5.65499 -0.0140574 0.010934 -0.00263379
33 1 5.6333 11.2868 11.2737 0.0038927 -0.0218386 -0.00329731
34 2 8.44684 -0.00650041 0.00499281 0.0126391 0.00770217 0.00136458
35 1 5.61374 2.81182 2.83457 0.0197683 0.00217557 -0.01379
36 2 8.44815 2.82682 2.8386 -0.0168417 -0.0255604 0.00425944
37 1 8.41458 -9.46646e-05 2.82879 0.0220203 -0.00183596 -0.00870176
38 2 5.60064 11.2664 2.80896 0.0230141 0.0206076 0.0262982
39 1 8.47419 2.8076 0.0282893 -0.0145891 0.0119436 -0.011443
40 2 5.64611 2.81736 0.0126074 -0.0125825 0.00618348 -0.00346262
41 1 5.6256 0.00692131 5.63787 0.00896774 0.0108932 -0.011486
42 2 8.45243 11.2976 5.64764 -0.0154505 -0.0142687 -0.00568376
43 1 5.62888 2.82196 8.47684 0.00189468 -0.000477147 -0.0137713
44 2 8.44082 2.82125 8.48211 0.034332 -0.0202407 -0.0112404
45 1 8.46927 -0.00759619 8.4597 -0.0218128 0.00827559 0.0178639
46 2 5.64538 -0.00107047 8.45039 -0.0135242 0.0102227 0.00348115
47 1 8.44892 2.83781 5.66319 0.00370452 -0.00387924 -0.0144891
48 2 5.63485 2.83912 5.64476 -0.0177418 -0.0315874 0.0114024
49 1 5.64179 5.63783 11.2782 0.00137384 0.0011015 0.00440447
50 2 8.46559 5.62668 0.0178125 -0.0148567 0.0131174 -0.00964268
51 1 5.61469 8.44846 2.79056 -0.00569023 0.0038958 0.0107045
52 2 8.42632 8.45301 2.82114 0.0205528 0.0183192 0.00471988
53 1 8.43226 5.63617 2.83125 0.0352051 0.0056394 0.00260721
54 2 5.63037 5.63186 2.81892 -0.0257174 0.00640111 0.0145163
55 1 8.442 8.44833 -0.00628325 0.029867 0.00650235 0.0169255
56 2 5.64523 8.45337 11.2511 -0.0259654 0.0146543 0.0200053
57 1 5.64575 5.64894 5.63819 -0.0123035 0.00269631 0.00699455
58 2 8.46834 5.65726 5.65098 -0.0301402 -0.0142962 0.0151438
59 1 5.64942 8.46213 8.41657 -0.0202514 -0.00846885 0.0510823
60 2 8.46386 8.45248 8.46626 -0.0111216 0.00319323 -0.0209134
61 1 8.45856 5.61645 8.4794 -0.000974323 0.0393097 -0.00206886
62 2 5.63623 5.63967 8.45986 0.00554986 0.00257779 -0.00106306
63 1 8.44528 8.47866 5.64464 0.0205165 -0.0148053 -0.00581287
64 2 5.62976 8.47033 5.61868 -0.00222166 -0.00706297 0.00662108
ITEM: TIMESTEP
3
ITEM: NUMBER OF ATOMS
64
ITEM: BOX BOUNDS pp pp pp
0.0000000000000000e+00 1.1279999999999999e+01
0.0000000000000000e+00 1.1279999999999999e+01
0.0000000000000000e+00 1.1279999999999999e+01
ITEM: ATOMS id type x y z fx fy fz
1 1 -0.00578898 11.285 0.011958 -0.00293214 -0.00217265 -0.00185226
2 2 2.81221 11.2846 0.00158445 0.00120148 -0.0066973 0.00675271
3 1 -0.0188806 2.82276 2.84014 0.00467014 -0.00504649 0.00516139
4 2 2.80311 2.81734 2.83548 0.00146884 0.0011933 -0.00262547
5 1 2.78879 11.2718 2.82347 0.0143738 0.0112512 0.0028127
6 2 11.2531 11.2829 2.83389 0.00718881 -0.00334455 -0.00726135
7 1 2.81985 2.82471 11.2974 0.00161721 -0.00522347 -0.00620054
8 2 0.00193712 2.82615 0.0222901 -0.0115264 -0.0060207 -0.00149337
9 1 -0.0129166 0.0107004 5.65205 0.00026584 0.00307383 -0.000836353
10 2 2.80519 11.2863 5.64419 0.00611578 -0.00132519 -0.0020316
11 1 11.2717 2.82079 8.48435 0.00948062 0.00251989 -0.00842688
12 2 2.81273 2.82409 8.4743 0.00621107 -7.45326e-05 0.00435871
13 1 2.81993 11.2815 8.46184 -0.00604292 0.00924134 0.000309034
14 2 -0.00167014 11.2813 8.46755 -0.0079525 0.00209849 0.0129345
15 1 2.8052 2.8272 5.65684 0.0118343 -0.00219863 -0.00213267
16 2 11.2739 2.83269 5.66141 -0.0119985 -0.00758471 -0.00539683
17 1 0.00140388 5.64395 0.0335432 -0.00259479 -8.50313e-05 -0.0189301
18 2 2.82251 5.64104 0.0190304 -0.00939311 0.0067827 -0.00773863
19 1 11.2504 8.45979 2.83352 0.015869 0.00746947 -0.00122168
20 2 2.79803 8.45509 2.82034 -0.00362683 0.00502688 -0.00113884
21 1 2.80458 5.63563 2.84006 0.00433087 0.00202333 -0.00340905
22 2 11.2648 5.64089 2.85084 0.00103248 0.00440795 -0.0176136
23 1 2.8156 8.46402 -0.00502819 -0.00274696 -0.00199932 0.010905
24 2 11.2762 8.46469 0.0126229 -0.0031791 -0.00797989 -0.00222313
25 1 -0.00481774 5.65285 5.66692 -0.00113427 -0.00472169 0.000596657
26 2 2.81573 5.64636 5.65835 -0.00585034 0.00296746 -0.00546989
27 1 -0.000391273 8.46162 8.47437 -0.00465285 0.00103535 -0.00518012
28 2 2.81851 8.46678 8.45763 -0.00300613 -0.0101054 0.0111819
29 1 2.81941 5.64761 8.4811 -0.00193375 -0.0104385 -0.010298
30 2 -0.00195657 5.64079 8.48405 -0.00205795 0.00827338 0.00237754
31 1 2.80812 8.46683 5.63999 0.00643144 0.000480247 -0.000633107
32 2 11.2712 8.47459 5.65484 -0.00325079 -0.0162463 -0.0103081
33 1 5.63444 11.2776 11.2735 -0.00236024 0.00525873 0.00578718
34 2 8.4532 -0.00489045 0.00593934 0.00249966 0.000514765 0.00103139
35 1 5.62265 2.81325 2.82919 -0.000860127 0.00511414 -0.00113119
36 2 8.44051 2.81699 2.83595 0.0114703 0.00880552 -0.00112657
37 1 8.42697 -0.00177552 2.82884 0.0160641 6.08172e-05 -0.00353047
38 2 5.6152 11.276 2.81744 0.000926101 -0.000419975 -0.00594808
39 1 8.46598 2.81338 0.0189611 -0.0152812 0.00435282 -0.00588127
40 2 5.64111 2.81851 0.00790929 -0.00652738 0.00115243 -6.04733e-05
41 1 5.62861 0.01137 5.63132 -0.00484013 -0.00949457 0.00880191
42 2 8.44629 11.2919 5.647 0.00624087 -0.0109492 -0.00154712
43 1 5.63444 2.81932 8.4703 0.00067355 0.00272135 -0.00567877
44 2 8.45743 2.81388 8.47801 -0.00311106 0.0118747 -0.00182815
45 1 8.45654 -0.0060322 8.46566 -0.000252489 0.0071923 1.65137e-05
46 2 5.63849 0.00126762 8.45374 -0.00729069 -0.00478877 0.00851925
47 1 8.45432 2.83067 5.65918 -0.0055218 -0.004737 -0.00418742
48 2 5.63072 2.82465 5.64918 -0.000723287 0.00632166 -0.00125483
49 1 5.64346 5.63966 11.2832 -0.00789769 -0.00509021 0.0026594
50 2 8.45843 5.63691 0.0155122 0.00324903 0.00137855 -0.00148917
51 1 5.61021 8.4503 2.7979 0.0155748 0.0123842 0.0227075
52 2 8.43652 8.45953 2.82034 0.00705445 -0.00358691 0.00437224
53 1 8.44636 5.63979 2.8364 -0.00515322 -0.00281521 0.00141392
54 2 5.62475 5.63503 2.82579 0.00671539 0.00248619 -0.00581525
55 1 8.45726 8.45174 -0.000975505 -0.00536417 0.0121633 0.00250502
56 2 5.63314 8.45944 11.2667 0.0023097 -0.00236974 0.00532846
57 1 5.63565 5.64978 5.63832 -0.00467195 -0.00698746 0.0105993
58 2 8.45315 5.64937 5.65858 0.00241808 -0.0053832 -0.0124798
59 1 5.63761 8.45926 8.44198 0.000886908 0.00512771 0.00610096
60 2 8.45865 8.45778 8.45708 -0.00442724 0.00208059 0.0156829
61 1 8.4549 5.63727 8.4752 0.00752421 -0.00102866 -0.00106453
62 2 5.64062 5.64207 8.46141 -0.00776851 -0.00135902 0.00821603
63 1 8.45459 8.47065 5.64274 -0.0113276 -0.00211298 -0.00397869
64 2 5.62974 8.46877 5.62195 0.00155934 -0.00444732 0.0182914
ITEM: TIMESTEP
4
ITEM: NUMBER OF ATOMS
64
ITEM: BOX BOUNDS pp pp pp
0.0000000000000000e+00 1.1279999999999999e+01
0.0000000000000000e+00 1.1279999999999999e+01
0.0000000000000000e+00 1.1279999999999999e+01
ITEM: ATOMS id type x y z fx fy fz
1 1 -0.00700355 11.2849 0.0083186 0.000311116 -0.00647132 0.00679134
2 2 2.81011 11.2814 0.00596478 0.00390824 0.00184596 -0.00190871
3 1 -0.017923 2.81873 2.84301 0.00554966 0.00616027 -0.00744321
4 2 2.80463 2.81935 2.83573 0.00327829 0.00470741 -0.00419474
5 1 2.80012 11.2807 2.82566 0.0018807 -0.00124269 -0.00215078
6 2 11.2616 11.2805 2.83206 0.00338688 0.00411809 -0.00121162
7 1 2.81674 2.82014 11.2956 -0.00611536 0.00080568 -0.000734655
8 2 -0.00768256 2.82227 0.0208788 0.00582042 0.000124059 -0.00535282
9 1 -0.01371 0.00892631 5.65265 0.00261923 -0.00493627 -0.000272807
10 2 2.80718 11.2843 5.64362 0.000728597 0.00295993 0.00463646
11 1 11.278 2.82616 8.47966 -0.00213547 -0.00432109 0.00113629
12 2 2.8182 2.82287 8.47482 -0.00655596 0.00142031 -0.00507655
13 1 2.81376 11.2872 8.46157 -0.00102884 -0.0104124 0.00791654
14 2 -0.00513761 11.2823 8.47409 -0.00163207 0.00162801 -0.0109197
15 1 2.81182 2.8279 5.65459 -0.00513603 -0.00467051 -0.00266216
16 2 11.2681 2.82864 5.6609 0.0089412 -0.00413427 -0.00403488
17 1 -0.00139719 5.64112 0.0225142 -0.00598178 -0.000471901 -0.00251568
18 2 2.81597 5.64011 0.0132887 0.000494512 -0.00107676 -0.00104921
19 1 11.2603 8.46396 2.83097 0.00534702 -0.00477472 -0.00405986
20 2 2.79936 8.45982 2.82174 0.0105638 0.0023716 0.00731838
21 1 2.80889 5.64144 2.83255 -0.0065394 -0.00226329 -0.00210038
22 2 11.2643 5.64227 2.84202 0.0101988 -0.00269615 -0.00614859
23 1 2.8116 8.4621 0.00196185 0.00138163 -0.00156502 0.00143363
24 2 11.2741 8.45925 0.00999858 0.00026112 0.00607318 -0.00145229
25 1 -0.00535608 5.65166 5.66135 -0.00617841 -0.00792548 -0.00515349
26 2 2.8128 5.64567 5.65224 -0.00109802 -0.000857512 0.000491628
27 1 -0.00285833 8.46102 8.47038 -0.00249141 0.00443062 -0.000588267
28 2 2.81771 8.46104 8.46289 -0.0079865 0.00502805 -0.000147496
29 1 2.81927 5.64159 8.47511 -0.00244963 0.00274298 -0.00242188
30 2 -0.00228009 5.6446 8.481 0.000218563 -0.00282896 -0.00913504
31 1 2.81208 8.46563 5.64335 -0.00502417 -0.00071245 5.42498e-05
32 2 11.2683 8.46625 5.64877 0.00500351 0.00203997 0.00531842
33 1 5.63341 11.2778 11.2768 -0.00244262 0.000633002 0.00406544
34 2 8.45663 -0.0040909 0.00683594 -0.0116494 0.00774504 0.000498576
35 1 5.62491 2.81668 2.82686 0.00188068 0.00427437 0.00110536
36 2 8.44486 2.8191 2.83447 -0.000373539 -0.00142898 -0.00177812
37 1 8.4402 -0.00226013 2.82679 0.00519475 0.00245569 -0.00178784
38 2 5.62025 11.2787 2.81658 0.00744507 0.00181188 0.00652872
39 1 8.45449 2.81771 0.012632 0.0009224 0.00409538 0.00268077
40 2 5.63574 2.81955 0.00641989 -0.00203311 -0.00397837 0.000450655
41 1 5.6267 0.00718986 5.63445 0.00256779 -0.00606208 0.00890683
42 2 8.44805 11.2837 5.6459 -0.00170019 0.00307487 0.00250479
43 1 5.63655 2.82009 8.46495 0.0039553 0.0022697 0.00577478
44 2 8.46075 2.81855 8.47567 -0.0129403 0.00495299 -0.00650428
45 1 8.45245 -0.00133866 8.46751 0.00247631 0.00183495 -0.00154667
46 2 5.63209 -0.00081154 8.45976 0.00241897 0.00655367 -0.00115629
47 1 8.45277 2.82569 5.65548 -0.00543445 -0.00249522 -0.00142049
48 2 5.62902 2.82387 5.64982 0.00511631 -0.000213729 -0.00553793
49 1 5.63936 5.63724 11.2863 -0.00356018 0.00662326 -0.00115956
50 2 8.45811 5.64089 0.0139286 -0.00578879 -0.00317612 -0.00169592
51 1 5.61793 8.45812 2.81346 0.00965737 0.000907291 0.00212579
52 2 8.4438 8.45945 2.82265 -0.00281347 0.00170233 0.0033499
53 1 8.44771 5.63927 2.83882 -0.000264918 0.00103186 -0.0115147
54 2 5.62694 5.63746 2.82452 0.00220621 0.00309006 0.00534672
55 1 8.45884 8.45991 0.00213331 -0.0109084 -0.00387227 0.003529
56 2 5.63075 8.45993 11.2747 0.00568112 -0.00179975 0.00965039
57 1 5.62979 5.64594 5.64457 0.00427781 -0.00227654 0.00336119
58 2 8.44986 5.64378 5.65363 0.00210802 0.00162388 0.00124296
59 1 5.63448 8.46137 8.45342 0.00127918 -0.00137663 0.00719785
60 2 8.45445 8.46064 8.46342 0.000908098 0.00262557 -0.00115325
61 1 8.45817 5.64312 8.47328 -0.00261329 -0.00393183 0.00110735
62 2 5.63743 5.64202 8.4667 -0.000545025 -0.00390901 -0.00191251
63 1 8.45084 8.46694 5.63983 -0.00278192 -0.00590505 0.00694028
64 2 5.63065 8.46569 5.63367 -0.00178601 -0.00197551 0.00643784
ITEM: TIMESTEP
5
ITEM: NUMBER OF ATOMS
64
ITEM: BOX BOUNDS pp pp pp
0.0000000000000000e+00 1.1279999999999999e+01
0.0000000000000000e+00 1.1279999999999999e+01
0.0000000000000000e+00 1.1279999999999999e+01
ITEM: ATOMS id type x y z fx fy fz
1 1 -0.00734357 11.2811 0.0107342 -0.00301403 0.000751805 -0.00145412
2 2 2.81149 11.2811 0.00672993 -0.00160059 -0.00200914 -0.000187559
3 1 -0.014258 2.82061 2.83989 0.0027292 0.0024156 -0.00526812
4 2 2.8072 2.82297 2.83337 0.001487 -0.00173621 -0.00431907
5 1 2.8061 11.2838 2.82534 0.00297116 -0.00170299 0.00349974
6 2 11.2673 11.2819 2.83056 0.00103124 -0.000395409 -0.000117827
7 1 2.81181 2.81865 11.2944 0.0015529 0.00364683 -0.0043848
8 2 -0.00840818 2.82068 0.017134 -0.000402414 0.000421447 -0.00355282
9 1 -0.012516 0.00526968 5.65276 0.00183785 -0.00249161 -0.00337492
10 2 2.80846 11.2852 5.6461 0.000505991 -0.00251729 0.000996072
11 1 11.2794 2.82593 8.4783 -0.00757413 -0.00354009 -0.00418737
12 2 2.8167 2.82318 8.47207 -0.0022903 -0.00210296 -0.000661996
13 1 2.8105 11.2835 8.46609 0.00331222 -0.00131546 5.23075e-05
14 2 -0.00758568 11.2837 8.47051 -0.000965455 0.000219812 0.00158895
15 1 2.81165 2.82546 5.65206 -0.000997425 -0.00122688 3.67184e-05
16 2 11.2709 2.82448 5.65832 -0.00167049 0.00012503 -0.00550037
17 1 -0.00610838 5.63962 0.0162959 0.000207106 0.00138057 -0.00385242
18 2 2.81345 5.63908 0.0102041 0.000444592 0.00320032 0.000163098
19 1 11.2677 8.46295 2.8275 -0.000698945 -0.00247948 0.0037947
20 2 2.80613 8.46325 2.82663 0.00479411 -0.00130297 -0.00248509
21 1 2.80691 5.64261 2.82808 0.0052436 -0.00015105 0.00419276
22 2 11.2701 5.64128 2.83462 -0.00487054 0.00191955 -0.00136276
23 1 2.8107 8.46036 0.00580868 0.00366142 -0.0005263 -0.000166458
24 2 11.2734 8.46047 0.00801855 -0.00417716 0.00176895 0.00240169
25 1 -0.00920932 5.6465 5.65593 0.000590177 -0.00413899 -0.00345361
26 2 2.8109 5.64487 5.6499 0.000910087 -0.00167325 -0.000234397
27 1 -0.00537985 8.46336 8.46832 -0.00216001 0.000217713 -0.000371056
28 2 2.81268 8.46153 8.46506 0.00337103 0.00234619 0.00347871
29 1 2.81778 5.64061 8.47111 -0.00313627 0.00299164 -0.00174085
30 2 -0.00229112 5.64458 8.47433 -0.00567041 -0.00273583 0.000367251
31 1 2.81084 8.4647 5.64482 -0.00239755 -0.000703656 0.00237809
32 2 11.27 8.46385 5.64927 -0.00239123 0.00178589 -0.00254478
33 1 5.63153 11.2782 11.2806 -0.000424871 0.00222503 0.00280645
34 2 8.45128 0.000793018 0.00751383 0.00177587 -0.000269705 -0.00259846
35 1 5.62698 2.82067 2.8265 0.00165909 0.000139416 0.0011314
36 2 8.44651 2.81917 2.83279 0.00449826 0.00315828 -0.00298192
37 1 8.44894 -0.00102907 2.82486 -0.00400692 0.00341306 0.00435112
38 2 5.62679 11.281 2.82004 0.00163354 0.000223153 0.00731789
39 1 8.45009 2.82198 0.0114812 0.00307343 -0.00310176 0.000583158
40 2 5.63224 2.81766 0.00604346 -0.000615661 0.00582545 0.00341569
41 1 5.62739 0.00183845 5.64101 0.0020826 0.00268882 0.00182559
42 2 8.4478 11.282 5.6469 0.00204601 -1.53482e-06 -0.000356128
43 1 5.63978 2.82175 8.46603 -0.00915107 -0.00163904 0.0018737
44 2 8.45459 2.82347 8.47085 0.00435804 -0.0023855 0.00255659
45 1 8.45214 0.00175567 8.4674 -0.000463086 0.00208077 -0.000985752
46 2 5.63076 0.00213588 8.46167 0.00258172 -0.00235295 0.00387142
47 1 8.44891 2.82209 5.65306 0.00311037 0.000153514 -0.00253983
48 2 5.63129 2.82341 5.64685 -0.00234674 -0.00273902 0.00088552
49 1 5.6355 5.64009 11.287 -0.00416848 -0.00231802 0.00175414
50 2 8.45459 5.64073 0.0122534 -0.00164653 0.000876357 -0.0020877
51 1 5.62692 8.46201 2.8214 -0.000809317 -0.00226547 0.00324623
52 2 8.44529 8.46042 2.8256 0.00873443 -0.000240997 -0.000101679
53 1 8.44813 5.63965 2.83311 0.00158907 0.000294874 -0.0016711
54 2 5.62918 5.64032 2.8271 -0.00128779 0.00225253 0.000787615
55 1 8.45313 8.46115 0.00553908 -0.000971504 -0.000500904 0.000665263
56 2 5.63305 8.45908 11.2837 -0.00388049 0.00141131 -0.00191821
57 1 5.62978 5.64296 5.64922 0.000902762 -0.000578023 -0.00382196
58 2 8.44968 5.64233 5.65223 0.00308481 0.00109204 -0.00172854
59 1 5.63388 8.46148 8.46255 -0.00220079 0.000113553 0.00152022
60 2 8.45317 8.46341 8.46547 4.30405e-06 -0.00306483 0.00207755
61 1 8.45805 5.64332 8.4731 -0.00338661 -0.000361854 -0.00368986
62 2 5.63574 5.63971 8.46786 0.00076836 0.00617099 0.00137846
63 1 8.4476 8.46188 5.64265 0.00427552 0.00120268 0.00628982
64 2 5.62999 8.4632 5.64248 -0.00145103 -0.00194409 0.00241365
