LAMMPS data file atomic style, metal units (velocities converted from real)

648 atoms
2 atom types

0.000000000000000 18.624000000000000 xlo xhi
0.000000000000000 18.624000000000000 ylo yhi
0.000000000000000 18.624000000000000 zlo zhi

Masses

1 15.999400000000000
2 1.008000000000000

Atoms # atomic

1 1 1.560490432773642 5.042914189671088 1.703522696566178 0 0 0
2 2 1.422399314529046 4.107210564701141 1.850564875733721 0 0 0
3 2 0.893426713620250 5.285970080242820 1.061509040305586 0 0 0
4 1 3.033503421601945 10.495905243062538 2.896077697559866 0 -1 0
5 2 3.698064626920566 10.402823139668655 3.578665456795041 0 -1 0
6 2 3.525761175756161 10.747141367793835 2.114544054148558 0 -1 0
7 1 14.565518633846418 17.679445683105566 9.825448696352474 0 -1 0
8 2 15.377714623142921 18.012878955087224 9.444144955335284 0 -1 0
9 2 14.775731384373750 17.533179975336477 10.747755345204390 0 -1 0
10 1 2.750232315575804 7.012295170312642 18.520616932571947 0 0 -1
11 2 2.522807072154906 6.665366316176798 0.759258322688791 0 0 0
12 2 2.050482296860938 6.702902147175392 17.945414182100040 0 0 -1
13 1 7.111514324741560 2.752798831358402 17.342841695301264 0 0 0
14 2 7.760537427670832 2.275882975551526 17.860096052130583 0 0 0
15 2 7.506164965267926 2.829374465557315 16.474153620105080 0 0 0
16 1 14.285731071404063 1.787984744762088 11.570819969938132 -1 0 0
17 2 13.652863686201238 1.090929783851695 11.743521253724204 -1 0 0
18 2 14.416909333193430 2.208933102447474 12.420423948070132 -1 0 0
19 1 10.106096458885188 5.651039538450163 2.298838389008214 -1 0 0
20 2 10.580385374174947 5.182433790308867 2.985635340443707 -1 0 0
21 2 10.319008565443372 5.177857134583230 1.494476147602037 -1 0 0
22 1 1.488715313824580 3.910519775167295 6.123796336633933 0 0 0
23 2 1.284802229174226 4.835047647190179 6.264864696501884 0 0 0
24 2 2.180708270182719 3.915585361828095 5.462469971913568 0 0 0
25 1 1.302367466152297 6.409845639069094 6.852397261232993 0 0 0
26 2 2.083760350169408 6.760595573658701 6.425042472558879 0 0 0
27 2 1.527432091771172 6.386734983405333 7.782474813592069 0 0 0
28 1 2.400862929326373 9.808364247219230 7.849178174209684 0 0 0
29 2 1.969326009321164 10.220944806936160 8.597366566134662 0 0 0
30 2 2.849527753652756 9.048464655889930 8.219967340200750 0 0 0
31 1 17.869016315257554 4.706478780839420 3.264026252866701 -1 1 1
32 2 18.517952339910146 5.207584363918032 2.770055684335272 -1 1 1
33 2 17.587528957811397 5.299403383444570 3.960759761406261 -1 1 1
34 1 0.310095532331468 8.417297644313205 16.517451896825570 0 0 0
35 2 0.703719822249370 7.592267562247730 16.233520501261815 0 0 0
36 2 18.601011752514236 8.234463777602024 17.396006809942218 -1 0 0
37 1 16.194347733944348 6.559319333491842 16.373739407888618 -1 0 -1
38 2 15.609849409972390 5.806913494457118 16.281657075734717 -1 0 -1
39 2 15.648302482254644 7.315247066583717 16.157776650501486 -1 0 -1
40 1 0.420315639496254 11.691627394150686 2.544866137450677 0 0 0
41 2 0.454179068832948 12.181427778721309 1.723172228734673 0 0 0
42 2 1.336555827148192 11.509621820403456 2.753697831572741 0 0 0
43 1 17.649437266575250 9.392482753626572 7.043226150873362 -1 0 0
44 2 18.359359506045156 9.958821602197794 6.740731785348040 -1 0 0
45 2 17.513562673237793 9.644975537477231 7.956471596203429 -1 0 0
46 1 16.013246412388284 8.108218476726320 12.420462789261299 -1 0 0
47 2 15.390624264664577 7.483685439408669 12.048263344083567 -1 0 0
48 2 16.708616768367243 7.563252129462123 12.788843884297204 -1 0 0
49 1 1.261172395064216 5.976089038283764 16.538230430450557 0 0 0
50 2 0.456966386216787 5.521277827833483 16.788493737107740 0 0 0
51 2 1.646043140290489 5.425446208161480 15.856395255298830 0 0 0
52 1 15.425651265778365 11.872216381026668 1.261633843467420 -1 0 1
53 2 14.761309191218679 11.426863362800258 0.735761154585515 -1 0 1
54 2 16.139382582484046 12.047483979667991 0.648362877116667 -1 0 1
55 1 12.877959185932816 10.150256564896297 13.597879590866592 -1 0 -1
56 2 13.765228432995993 10.439845556280302 13.810301753052896 -1 0 -1
57 2 12.311609015656570 10.682129277536399 14.156977709318435 -1 0 -1
58 1 13.007076288488955 18.483904911598820 5.395429563662189 -1 0 0
59 2 12.238173984281383 0.295043941727070 5.027088476305217 -1 1 0
60 2 13.328721609804910 0.465602696708278 6.063191903086251 -1 1 0
61 1 5.311326542565216 0.445809240373749 15.092630163998477 0 1 0
62 2 5.695088501532713 18.551067813462222 15.799642745905620 0 0 0
63 2 5.707930770980456 1.311764617471876 15.187805446380107 0 1 0
64 1 1.119994623925132 11.340458004121869 16.770771497798034 0 0 0
65 2 0.641304087572661 10.511659120710355 16.784187551117327 0 0 0
66 2 2.029350527687258 11.089773428175839 16.608102379520354 0 0 0
67 1 17.510911171052760 6.235302073196313 5.477509530629418 -1 0 1
68 2 17.630295077458445 7.136728712251231 5.178495712879800 -1 0 1
69 2 18.289111993502760 6.051995464758949 6.003849692167571 -1 0 1
70 1 16.672465759045450 10.507907831677084 3.206685772445001 -1 0 1
71 2 16.000108289490157 10.888693377134526 2.641735073824286 -1 0 1
72 2 17.495383782113844 10.869581401364380 2.877703396941239 -1 0 1
73 1 2.705401679979294 13.475897639075127 1.735657392455669 0 0 0
74 2 3.600422597564200 13.178577602049218 1.899272703409610 0 0 0
75 2 2.352868440644744 13.665738321550496 2.605089635705026 0 0 0
76 1 15.575518897658357 9.614756834178479 10.081558640439875 -1 0 0
77 2 15.378293495159749 8.758858265545560 9.701070324336639 -1 0 0
78 2 16.032789363497074 9.414686852164602 10.898325060159237 -1 0 0
79 1 1.068260187070161 16.711496859849680 10.105286489796555 0 0 0
80 2 0.317186386151185 16.542619994998358 10.674145747613565 0 0 0
81 2 1.076058383776593 15.975546167746874 9.493283598261762 0 0 0
82 1 6.314276960648389 8.926073308755042 17.194733873669610 0 0 0
83 2 5.819770818612088 9.107110234109024 17.994059151597560 0 0 0
84 2 6.285767532688826 7.973472234329859 17.105461359037570 0 0 0
85 1 17.712914404653920 12.579181042420176 18.208986440964250 -1 0 0
86 2 18.407369873702610 12.108292796265546 17.748304833601324 -1 0 0
87 2 17.977047042017666 13.498229973154228 18.166385789169457 -1 0 0
88 1 15.239354364470428 0.023947837410264 17.842288974792037 -1 1 0
89 2 15.854231473332174 18.212776046278762 18.432867486211492 -1 0 0
90 2 14.386319486557236 18.542039174686174 18.263414258849107 -1 0 0
91 1 3.053678854167834 17.421617914689982 1.944219203867738 0 0 0
92 2 3.889471696630327 17.765554946852063 1.628958368861642 0 0 0
93 2 2.943802269982934 17.814458194795474 2.810149569977968 0 0 0
94 1 7.473343845081552 12.391144500579340 6.869893605506614 0 0 0
95 2 8.236577692979708 11.820779229166869 6.961488683390631 0 0 0
96 2 7.743924183505992 13.219554317003153 7.265816999676845 0 0 0
97 1 5.362401546285194 18.533094924741647 7.452234021407906 0 0 0
98 2 6.098660101449321 0.188771292893853 6.908233933562079 0 1 0
99 2 5.763649773284818 18.260489410877604 8.277411401830959 0 0 0
100 1 0.860617066931364 15.727163534310282 3.014393464542732 0 0 0
101 2 1.661692544826170 16.034974816374720 2.590409305762866 0 0 0
102 2 0.184756012152920 16.339538391098710 2.723806107482924 0 0 0
103 1 3.023873450906680 13.095640279669830 5.277573093363792 0 0 0
104 2 3.599627293628377 13.793184080770517 4.964247411845048 0 0 0
105 2 2.594424446090056 13.466959989155030 6.048240223401648 0 0 0
106 1 0.453270596200755 7.356967043645977 11.529643965952598 0 1 0
107 2 0.013435101276819 8.199009401552475 11.412424151449997 0 1 0
108 2 0.491217881304207 7.236058774946307 12.478418469555216 0 1 0
109 1 6.051001396002188 15.074977117971880 17.695818065571707 0 -1 -1
110 2 5.570692829505902 14.372738530645755 18.134448126219255 0 -1 -1
111 2 5.761985712356264 15.030473531274860 16.784379056408540 0 -1 -1
112 1 4.072462903607558 15.776075334881591 9.033184388521878 0 -1 0
113 2 4.375663690341984 15.692593460902586 8.129120146052468 0 -1 0
114 2 4.455838802627557 16.597739701909520 9.339978299817275 0 -1 0
115 1 15.352184633368280 8.377309697210954 6.336763729506982 -1 0 0
116 2 15.374916270103451 7.628134318262781 6.932121839208565 -1 0 0
117 2 16.235971814412864 8.742730616282591 6.377006258619453 -1 0 0
118 1 5.488236646292440 5.287971722806990 12.614538177591136 0 0 0
119 2 6.002520414224939 4.942451545891185 11.884907593616273 0 0 0
120 2 5.727724078201281 6.213621029954701 12.659834271245490 0 0 0
121 1 0.728642949174115 13.507394673297850 11.722460212742230 0 -1 0
122 2 0.175899491139269 14.286941570157488 11.777358479995646 0 -1 0
123 2 0.114082690782516 12.786704392413089 11.584065133077551 0 -1 0
124 1 16.036241525050410 1.777231577971340 1.716492327518818 -1 0 1
125 2 16.774656521618475 1.236891629018350 1.435408645046708 -1 0 1
126 2 15.893535679473013 2.384858415483727 0.990781321266333 -1 0 1
127 1 10.157279343610327 8.726271516932464 4.017702709844331 0 0 0
128 2 10.511817099780126 7.916030227670279 3.651582487009337 0 0 0
129 2 9.505308373475007 8.436216595260962 4.655694770174162 0 0 0
130 1 3.365825880952547 7.944761664193639 12.793734280017366 0 0 0
131 2 4.256707921655257 8.224917841230845 12.583796523043311 0 0 0
132 2 3.031469524595858 7.575533973179496 11.976355201164829 0 0 0
133 1 18.506745620691145 8.657339422400339 4.170360772951781 -1 0 0
134 2 17.739835149348743 9.137666408303563 3.858325467815902 -1 0 0
135 2 0.504318845920131 9.338421246412139 4.427276860261400 0 0 0
136 1 10.388453676164017 6.672675130335629 16.119741423331280 0 0 0
137 2 10.607897270159205 7.255045260536895 15.392471850882965 0 0 0
138 2 9.523695616237982 6.327280657555534 15.898094084577513 0 0 0
139 1 6.007051262119153 2.622946705976275 1.171827441165021 0 0 1
140 2 5.349313166170159 3.304282418071061 1.311089513391412 0 0 1
141 2 6.353016166532552 2.798626526906304 0.296797899563104 0 0 1
142 1 1.404320717899556 4.181440861793536 14.347302273180325 0 0 0
143 2 1.166406616500936 3.444377183307491 13.784837733148220 0 0 0
144 2 2.349322517006176 4.277983471865684 14.229477490106080 0 0 0
145 1 5.653901258897840 6.167147900648372 16.610184413570376 0 0 -1
146 2 5.417208023782870 5.282536943732207 16.331487146329344 0 0 -1
147 2 4.944075503256935 6.719792235056318 16.283129823007613 0 0 -1
148 1 1.581333589358192 13.745482680560503 7.704330136607642 0 0 0
149 2 0.843406443856337 13.136149082753079 7.684127508150369 0 0 0
150 2 2.152302127296701 13.408126855294334 8.394560707384944 0 0 0
151 1 6.712901275146010 11.851693391230690 4.316969214185003 0 0 0
152 2 7.293884957251399 11.926819044887681 5.073967121531166 0 0 0
153 2 5.876245257212395 12.203820727450190 4.620687282535880 0 0 0
154 1 17.738967159217420 16.191835448412505 15.621143001937197 -1 0 0
155 2 17.015668914188580 15.837639508709916 15.103825845281145 -1 0 0
156 2 17.659520147068726 15.760208178511790 16.471799949327470 -1 0 0
157 1 1.313161505535350 2.207555294531582 1.923378491183989 0 0 1
158 2 0.661653569501317 1.791476648180614 1.358889079113897 0 0 1
159 2 0.989699615064218 2.060337519746706 2.812159279477593 0 0 1
160 1 15.675287652048029 7.739045655640560 1.389186431609539 0 0 1
161 2 15.069524959698352 8.271058411806674 0.873196371682970 0 0 1
162 2 15.285741187762545 7.711301087183330 2.263094579702158 0 0 1
163 1 7.387116728702551 6.971497899312622 4.634283359967147 0 0 0
164 2 6.724585905218890 7.575262632559324 4.298495323259243 0 0 0
165 2 7.433969066581244 6.277011473270428 3.977224620957246 0 0 0
166 1 1.132546952229075 10.870758657689029 5.597101492226988 0 0 0
167 2 1.644424215621217 11.651796793901244 5.386880421006102 0 0 0
168 2 1.730240112327430 10.321439929530623 6.104293432161455 0 0 0
169 1 11.016998207117460 11.463850535138093 3.471444652287126 0 0 0
170 2 11.045006293408244 10.556971548689840 3.776434239629371 0 0 0
171 2 11.310661571591500 11.420186264771091 2.561451699204826 0 0 0
172 1 3.071920168690930 4.510050977870210 11.516367945967328 0 0 0
173 2 3.177043109236776 3.564686229577632 11.623449630724272 0 0 0
174 2 3.841351168230484 4.886945765830220 11.943167730660685 0 0 0
175 1 6.282458380955201 7.919337647300907 12.763651334901313 0 0 0
176 2 7.179485680641494 7.585986057803323 12.742410452247041 0 0 0
177 2 6.225736147248379 8.503968758316383 12.007859330289516 0 0 0
178 1 7.658741913489908 4.712800399725493 2.966492248696456 0 0 1
179 2 7.107884841058500 4.619606457897174 2.189251214825461 0 0 1
180 2 8.530422910379840 4.905521525105726 2.621146393780543 0 0 1
181 1 2.455138267891030 7.753151339474349 3.126811955020625 0 0 0
182 2 1.585568857419780 7.564989347656280 3.479906900310098 0 0 0
183 2 2.423436753309417 8.680671621694580 2.892433014887721 0 0 0
184 1 7.714542853082940 15.988832382578801 9.847210373731790 0 0 0
185 2 7.355187252638127 15.642037485006858 9.030615140295088 0 0 0
186 2 7.120265666357215 16.699439634771405 10.088256834085502 0 0 0
187 1 5.985599687796624 17.907294789135070 10.359993002968647 0 0 0
188 2 6.023923785402573 17.753253929485453 11.303939226270410 0 0 0
189 2 5.113120467575508 18.271961560012540 10.211568094312618 0 0 0
190 1 7.009291205827658 14.853888487285160 12.551957771612102 0 0 0
191 2 7.630288537595626 15.094293558071152 11.864353713392074 0 0 0
192 2 6.611099561530180 15.683201968308240 12.816370046734136 0 0 0
193 1 16.423446541759944 16.937777252365410 1.205148234708900 -1 0 1
194 2 15.709024447764463 16.364690346884970 1.483365239965568 -1 0 1
195 2 16.661039891700224 17.425326788917140 1.993867317679527 -1 0 1
196 1 5.184146253866418 18.613200220376754 0.867644513123621 0 0 1
197 2 5.949369773225250 18.406492393849522 0.331046988920349 0 0 1
198 2 5.279155596453271 0.919285436215841 1.072942815760817 0 1 1
199 1 3.379514601684516 13.273006675921305 9.884349420962180 0 0 0
200 2 2.918131611644069 13.326565106186166 10.721301121857378 0 0 0
201 2 3.578357334358562 14.182371203112094 9.661305561708291 0 0 0
202 1 12.579252638061005 3.067033290258797 9.417549902872437 0 1 0
203 2 11.753347468794093 2.585611656828927 9.369112920109814 0 1 0
204 2 13.104275842359693 2.579615519115233 10.052378108312624 0 1 0
205 1 8.888224844280616 3.792954435555887 11.998367798368625 0 1 0
206 2 8.730099189943424 3.588775963963482 11.076663311191535 0 1 0
207 2 9.836619552115254 3.907098448745028 12.059607086771152 0 1 0
208 1 0.807877744229488 15.761951853409869 13.475092329279576 0 0 0
209 2 0.161580078434471 15.850580986936457 14.175575724493491 0 0 0
210 2 1.263578621771508 14.943343853802993 13.671179870973209 0 0 0
211 1 2.559975361946540 0.872417711065499 15.006180274180279 0 1 0
212 2 2.678185759289594 1.434485473355126 15.771907540812084 0 1 0
213 2 3.424586444033647 0.491673495082859 14.852186488113011 0 1 0
214 1 9.945077009509097 0.687089735117458 0.189716003733377 0 1 1
215 2 9.846463194207430 18.574036113625130 18.211006288068866 0 0 0
216 2 10.815324627947644 1.037587907234812 18.623842433213564 0 1 0
217 1 3.676211423890094 7.901289647594579 15.443981933833768 0 0 -1
218 2 2.805389813824986 7.762147025329607 15.816192693676552 0 0 -1
219 2 3.576324863066727 7.692690397398604 14.515143028049824 0 0 -1
220 1 18.348559728397850 0.752541190008023 0.119509024387985 -1 0 0
221 2 18.421575611306523 0.982563896645789 17.817231352809840 -1 0 -1
222 2 0.185629320721758 18.541237756138138 0.196420803755690 0 -1 0
223 1 8.721182295151980 3.583661441535811 9.162996749619019 0 0 0
224 2 8.428474031215266 3.962238391193811 8.334001458870864 0 0 0
225 2 9.469924950309853 3.036504632598220 8.925855818495855 0 0 0
226 1 7.974797442266245 5.923775955176247 15.150692434500910 0 0 0
227 2 8.250065910692179 6.184320153031164 14.271729665590462 0 0 0
228 2 7.112794408154805 6.325035228472518 15.261026323610917 0 0 0
229 1 4.477012528008601 4.749526251414784 1.865675112222021 0 0 1
230 2 3.589290580444772 4.968839904880392 1.582685279073114 0 0 1
231 2 5.038612065062170 5.361598363509255 1.390064283103984 0 0 1
232 1 7.514578964236954 5.464606418451749 7.135522474396463 0 0 1
233 2 7.365247569398373 6.098188787050266 6.433734582674147 0 0 1
234 2 6.813152635798601 5.633492254632909 7.764577873026106 0 0 1
235 1 11.844367992672128 17.253916687478338 9.348316436029373 0 -1 -1
236 2 11.703237611763013 16.665953113024890 10.090349375707461 0 -1 -1
237 2 12.778941879674038 17.458570672615938 9.378652185442853 0 -1 -1
238 1 12.388356488415633 6.836752465763724 6.202114412961302 0 0 0
239 2 13.196595881939583 6.546578513182011 5.779291129048643 0 0 0
240 2 12.430571948676537 7.792488192654556 6.170201068882522 0 0 0
241 1 4.779634376974431 9.012760137688769 0.820391251180056 0 0 0
242 2 4.843724209755587 8.935896041139967 1.772345339248620 0 0 0
243 2 4.093387175717758 8.392143855085326 0.575172251875046 0 0 0
244 1 11.038606719901017 11.068955201134200 15.196397096305253 0 0 0
245 2 10.692940659036260 11.238798363823173 16.072696694439237 0 0 0
246 2 10.449369498180060 11.543329352519834 14.609881266978938 0 0 0
247 1 6.750458368309776 17.885479213372104 17.199364569823917 0 -1 0
248 2 6.632274983387625 17.063502247461940 17.675408365845605 0 -1 0
249 2 7.427288756026149 17.691993003950714 16.550754121192835 0 -1 0
250 1 1.299973807247698 0.188725223036112 6.468222488518151 0 0 1
251 2 0.742042609974761 18.043635250731256 6.352271789938610 0 -1 1
252 2 0.770796519357914 0.792765828279830 6.989123954088064 0 0 1
253 1 18.133315514403980 15.229467300508192 18.394173981124990 0 0 -1
254 2 17.398739171450302 15.758128890598124 0.081857984811753 0 0 0
255 2 0.274672188914402 15.793774306637616 18.503806663712822 1 0 -1
256 1 12.626014925214193 15.527619710473232 11.606052841248339 0 0 0
257 2 12.919826962198911 14.630121180026542 11.449836489322637 0 0 0
258 2 13.434218855958960 16.031576297871712 11.701271595898792 0 0 0
259 1 1.700073800482432 10.286264750908270 12.808577576537827 0 0 0
260 2 2.248932963842069 9.518082807539270 12.966320909329431 0 0 0
261 2 2.309146994579759 11.024432611985740 12.827829939816406 0 0 0
262 1 0.419648483627539 3.753761763602830 10.503530595226163 0 0 0
263 2 1.181456037206323 4.240045323175873 10.818823873227272 0 0 0
264 2 0.290077586289907 3.063010755750647 11.153382265664119 0 0 0
265 1 8.802718120817676 3.267347349337859 14.732520024566483 0 0 0
266 2 8.749180219220632 4.106259491405283 15.190332045716210 0 0 0
267 2 8.818586260773303 3.501020162797524 13.804416004134346 0 0 0
268 1 13.645510829034938 4.003713124894254 17.755503724241393 0 0 0
269 2 14.171624142079446 4.315973046572381 18.491663500177260 0 0 0
270 2 14.286921908054218 3.688194136150773 17.118894151605170 0 0 0
271 1 3.632090083862338 3.637842224043635 4.283846023018988 0 0 0
272 2 4.342629201373836 3.001799223353030 4.366398891468341 0 0 0
273 2 3.699122677257970 3.957091146492060 3.383946944729158 0 0 0
274 1 17.783966411324606 13.525130857303667 4.332569131899598 -1 0 0
275 2 18.320856347672198 14.269391795494267 4.060435156110906 -1 0 0
276 2 18.111060047734924 12.790623087170012 3.813203676619365 -1 0 0
277 1 4.357840952696387 11.056557451756706 12.544309896808613 0 0 0
278 2 4.165565542644528 11.068326394507407 11.606694067498353 0 0 0
279 2 5.238191921899372 11.425932987348550 12.613413781452238 0 0 0
280 1 11.195301092692688 12.595606399086405 9.816001334800005 0 0 0
281 2 11.517993865465574 12.728007808959042 8.924614123025584 0 0 0
282 2 11.781546273434207 11.936732886767638 10.188069713789599 0 0 0
283 1 6.756388958154067 5.279975374473660 0.196353109329853 0 0 1
284 2 6.508498077117594 5.690280405272091 17.991840637333050 0 0 0
285 2 7.316965918934059 4.546712581881543 18.566756251998957 0 0 0
286 1 7.907021972535251 0.636774554686255 2.102078133473444 0 0 1
287 2 7.391014094695777 1.350412798236497 1.726994092569276 0 0 1
288 2 8.666888762215944 0.560975481343396 1.524939625087811 0 0 1
289 1 8.381270767686127 10.044340964522737 1.850166429693211 0 0 0
290 2 8.827243947698834 9.497732558995290 2.497128021821548 0 0 0
291 2 8.470855044096519 9.563694143358903 1.027253675341855 0 0 0
292 1 14.518758135159630 0.054142443918318 15.151780882221244 0 1 -1
293 2 13.646109443494776 18.379021239263352 15.407207266059407 0 0 -1
294 2 15.016188642276793 0.069138972115371 15.969442099125440 0 1 -1
295 1 7.335121431503647 9.992659682744485 14.965816724735575 0 0 0
296 2 6.997316571504575 9.439192549184469 15.669943966001298 0 0 0
297 2 7.357911939435934 9.419200493229098 14.199751157380437 0 0 0
298 1 7.784887081629466 0.778914560126712 6.763869450011405 0 1 0
299 2 7.930004094973064 1.610440629328187 6.312496843774661 0 1 0
300 2 8.630027522695753 0.571609729502852 7.162610047959543 0 1 0
301 1 3.665717751404419 10.619771426506958 15.163723756808466 0 0 0
302 2 3.892659968274024 9.690704512805265 15.203283518272375 0 0 0
303 2 3.879909809583651 10.881212673101647 14.268177409778149 0 0 0
304 1 2.190371162028800 13.757975007546424 15.049330697392362 0 0 0
305 2 2.052979686528031 14.145419347845667 15.913763063481928 0 0 0
306 2 1.907979108803444 12.848536027913878 15.146323497002198 0 0 0
307 1 10.501373490534089 1.171816640717084 9.128590922288428 0 1 -1
308 2 11.037067352982794 0.424299256341071 8.863105541477118 0 1 -1
309 2 10.021113841932285 0.862213453053991 9.896529384833268 0 1 -1
310 1 11.260693060188460 5.273165377102193 18.251371434599196 0 1 -1
311 2 11.046851858212719 5.804374062962941 17.484349573175535 0 1 -1
312 2 12.179102634162257 5.033037794580372 18.128511342276420 0 1 -1
313 1 9.131249089652398 15.033213641502329 6.561854381428125 0 0 0
314 2 9.881431077387466 14.490350882330493 6.804257588396348 0 0 0
315 2 9.248805952072958 15.201335998870771 5.626895772983151 0 0 0
316 1 3.998858654075006 16.721746784613256 6.202450821847175 0 0 0
317 2 3.305810071863384 17.161038315917896 5.709563288477470 0 0 0
318 2 4.487862084119851 17.433538784882840 6.615318073261689 0 0 0
319 1 5.914089624792779 8.955950432819845 3.337142114632522 0 0 0
320 2 6.546767165504234 9.630300762897555 3.089750362019201 0 0 0
321 2 5.531061880434869 9.274509883663697 4.154480307483116 0 0 0
322 1 5.475315574185228 14.687981273050790 15.022575297192315 0 0 0
323 2 5.727503478476533 14.579741502240270 14.105560157937875 0 0 0
324 2 4.520581993668927 14.619424544169007 15.018610291756060 0 0 0
325 1 9.403027432850482 0.274734832480574 11.609224526688916 0 0 -1
326 2 9.211764160639499 17.982318694118117 11.409644451100105 0 -1 -1
327 2 9.180835371453778 0.370072413362896 12.535385455751772 0 0 -1
328 1 18.214938517272800 2.251291884138159 4.199387650898785 0 0 0
329 2 17.893226232070420 3.073596987795872 3.829865292310547 0 0 0
330 2 0.291908654739483 2.514205646848127 4.795834605292088 1 0 0
331 1 7.937805595942215 2.974373997284224 5.451858570962934 0 0 0
332 2 7.828741555656738 3.799685564135364 5.924296993545618 0 0 0
333 2 7.867059644996766 3.215417090349375 4.528210684756996 0 0 0
334 1 18.468820561147350 2.367951010963891 12.775629753697924 0 0 0
335 2 0.240619832418565 1.514362565090697 12.951588524015493 1 0 0
336 2 17.603835191407620 2.319902620164789 13.182721158655712 0 0 0
337 1 5.787778297609480 17.242096165119452 13.004902546968172 0 -1 0
338 2 5.697545945030675 17.928505160982464 13.665911155217819 0 -1 0
339 2 4.928845125972669 16.820506910453435 12.977918525184984 0 -1 0
340 1 13.842334793784927 15.967225517513610 6.740269431081059 0 -1 0
341 2 14.521571217873639 16.502792423109256 6.330346298995774 0 -1 0
342 2 13.091458661215567 16.554900064505230 6.824265847220242 0 -1 0
343 1 8.690463092632275 0.545194643064098 14.267760400999308 0 0 -1
344 2 9.368133803110258 0.146949580155736 14.814015717983821 0 0 -1
345 2 8.744357998879135 1.480827038300208 14.462491405278020 0 0 -1
346 1 6.597352704176621 15.080439202382053 7.532904367273432 0 -1 0
347 2 6.080623191668617 14.531751719164372 6.942849591718271 0 -1 0
348 2 7.399071201450645 15.268738514541369 7.045027890264511 0 -1 0
349 1 17.796648820946560 6.214964583365241 13.882714796660707 0 0 0
350 2 18.431325713616967 5.529542314928009 14.091553332540231 0 0 0
351 2 17.167250821401740 6.186873099830985 14.603340267783441 0 0 0
352 1 4.614751542942821 10.042894956207588 5.590133675803876 0 0 0
353 2 5.052365709701172 9.665621990394467 6.353279098010237 0 0 0
354 2 4.296300502846138 10.893510894689323 5.892248469905807 0 0 0
355 1 12.665303115182814 7.138417271352656 11.594847275741158 0 0 0
356 2 13.344840634862573 7.065729756027603 10.924640270205860 0 0 0
357 2 12.033092289481655 7.757317689943005 11.229464826504243 0 0 0
358 1 13.220230538322852 9.520532407542017 5.768721586958653 0 0 0
359 2 13.982840525172330 8.962635274620807 5.921720211973555 0 0 0
360 2 13.588964539281015 10.367987396599862 5.519548848244239 0 0 0
361 1 10.675977702480287 8.554870556261003 10.347955395779488 0 0 0
362 2 11.170767918050378 9.031334207502700 9.681324509452757 0 0 0
363 2 10.051922109342687 8.025733430229325 9.851165470222973 0 0 0
364 1 5.263824493108292 11.277481415494627 9.571204392487960 0 0 0
365 2 5.938043244118708 11.804019029529170 9.141765331816815 0 0 0
366 2 4.529809026142253 11.879812403368838 9.692243536428446 0 0 0
367 1 13.961397357325504 4.964898778628509 8.073789540527720 0 0 0
368 2 13.358427076213719 5.449209309237253 7.509784319375009 0 0 0
369 2 13.394868476719873 4.412370268048649 8.612295701827406 0 0 0
370 1 4.316062544335839 7.395883537731689 7.944853432919721 0 0 0
371 2 3.697676438767964 6.850351926818467 8.430884820981120 0 0 0
372 2 4.167191093338407 7.168106972216785 7.027145711310792 0 0 0
373 1 10.785801690895664 8.368543790953348 14.080594088599355 0 0 0
374 2 11.480718992007816 8.431153642137340 13.425306155719628 0 0 0
375 2 10.800720994494943 9.214711628081952 14.527818876901645 0 0 0
376 1 0.986864308906750 18.618142973966800 12.894200421750853 1 -1 0
377 2 0.736129775308077 17.696992606309106 12.963817576774202 1 -1 0
378 2 1.826006665659517 0.049659552353223 13.351355009148872 1 0 0
379 1 15.974867909603285 14.795053176075388 14.085167717470540 0 0 -1
380 2 16.407276132607656 14.235354666857700 14.730142556065262 0 0 -1
381 2 15.431308502017698 14.195912914077040 13.573498209810543 0 0 -1
382 1 8.586607546035742 13.048607763059922 2.156669035534312 0 0 0
383 2 7.959718437859372 12.337118050623205 2.287147109241843 0 0 0
384 2 9.166706502798665 12.999692699774085 2.916487825609630 0 0 0
385 1 5.200129073224813 8.663097133104646 10.345707029381789 0 0 0
386 2 5.351897571072694 9.564834790933390 10.062747006522460 0 0 0
387 2 4.965253566771096 8.196236970005463 9.543768195396261 0 0 0
388 1 9.021723283829170 11.753029511985423 11.045900999785518 0 0 0
389 2 9.638961310131299 12.270612051123251 10.528834862831348 0 0 0
390 2 9.143697373414314 10.855255788930277 10.737102576247810 0 0 0
391 1 14.657239337427447 11.153480492150756 16.719498063491034 0 0 0
392 2 14.246694453431274 12.014039432374842 16.803895246561602 0 0 0
393 2 14.986787937575288 11.131870002794827 15.821076051195593 0 0 0
394 1 6.231367061929880 17.636211521131663 3.741938545391385 0 0 1
395 2 6.822274530123493 17.975945298414594 3.069895880419473 0 0 1
396 2 5.721572331827272 16.961035624123350 3.294190256412226 0 0 1
397 1 14.496786622446537 16.097125578808644 16.612453693138600 0 0 -1
398 2 15.093261911987772 16.844717739151280 16.651887657635424 0 0 -1
399 2 13.866822738048102 16.255390300000553 17.315539875517686 0 0 -1
400 1 7.048269865658466 12.387833858862006 16.056029812861627 0 0 -1
401 2 6.972094851806958 11.561386929529009 15.579149621986263 0 0 -1
402 2 6.262256568937946 12.877717143810163 15.814308259130550 0 0 -1
403 1 9.885996379133331 16.166327583604180 11.650706547857917 0 0 0
404 2 10.617200633838035 15.548615751642108 11.652815178245124 0 0 0
405 2 9.383755548414237 15.941018230400202 10.867621557319332 0 0 0
406 1 3.365532031496408 0.366595330350899 9.914326362480738 1 1 0
407 2 2.546857667425496 18.503607171747372 9.820267089401740 1 0 0
408 2 3.725223032180908 0.404795612787614 9.028101153485773 1 1 0
409 1 13.117428091051910 5.055563754586000 14.945524322376302 0 0 0
410 2 12.377976902013199 4.778803081542497 15.486678120209193 0 0 0
411 2 12.883071700457482 5.935617947542180 14.650882934122686 0 0 0
412 1 15.071437102327042 3.392365147436398 13.940165674221845 -1 0 0
413 2 15.253928316794210 2.896346464111821 14.738222568426673 -1 0 0
414 2 14.502950725820204 4.107208817305495 14.226617041600310 -1 0 0
415 1 5.164831161934435 14.630652431113214 4.913623851132920 0 0 0
416 2 5.458647270374522 14.784911123681880 4.015788387689566 0 0 0
417 2 5.000717587652935 15.505347599464127 5.266055360948204 0 0 0
418 1 4.468896306090341 2.643607301824764 7.369741316657662 0 1 0
419 2 5.051334841086145 1.922195041417132 7.607567796583382 0 1 0
420 2 4.455789310078932 2.635931574784038 6.412661869765742 0 1 0
421 1 8.629222603735345 16.547565767191415 15.452849681020272 0 0 0
422 2 8.689844597153595 15.606304388119200 15.289804222772704 0 0 0
423 2 8.401853413641206 16.924226609419964 14.602754580939610 0 0 0
424 1 10.627014846642865 15.249013187887895 3.730053002623607 0 0 0
425 2 11.530440371991027 14.948977976298456 3.830218293098531 0 0 0
426 2 10.698919079898810 16.198478085683450 3.632185804278868 0 0 0
427 1 8.797928292472166 13.966061545938095 14.475138078659459 0 0 0
428 2 8.130330071482524 14.114996309874467 13.805538712597498 0 0 0
429 2 8.489470313660530 13.197249373235499 14.954735391486045 0 0 0
430 1 8.796689497739676 14.386102697977400 18.407081355883430 0 0 0
431 2 7.911502977294700 14.695401213550204 18.214697318122596 0 0 0
432 2 8.691774976862224 13.817748863596867 0.546101794289174 0 0 1
433 1 10.382468924559141 16.723354801010206 17.515561583593957 0 -1 -1
434 2 9.854360329974588 16.593676801421847 16.727832923444293 0 -1 -1
435 2 10.102066433452768 16.027268181056275 18.109758116222250 0 -1 -1
436 1 0.296041549217534 2.441617035029759 7.899229279495875 1 0 0
437 2 0.460435283331907 2.846147409923099 8.751028118161749 1 0 0
438 2 0.743878738981315 3.010392437233877 7.272996136841914 1 0 0
439 1 15.448112831501419 10.494945420290620 13.905471705286603 0 -1 0
440 2 15.289319490388830 9.676503531101988 13.435185550900949 0 -1 0
441 2 16.398620904460910 10.529365480270283 14.013087564165769 0 -1 0
442 1 14.179582801671163 1.970357404966984 7.057376496819463 0 0 0
443 2 13.992963770878573 2.826280952232490 7.443122513354480 0 0 0
444 2 14.904516377360030 1.625180031007561 7.578486911571566 0 0 0
445 1 15.953354941013979 2.401101779170997 16.578411850688685 0 0 0
446 2 15.681083122596942 1.615842759224553 17.053246593011163 0 0 0
447 2 16.856079128087924 2.221659575384747 16.315503134690992 0 0 0
448 1 11.854211264826112 17.626166343083653 15.257580919463510 0 -1 0
449 2 11.537085026630285 17.601662689564638 16.160388935702760 0 -1 0
450 2 11.961152959325680 16.706218623666366 15.015731221911514 0 -1 0
451 1 16.065724091199550 5.373735088360161 11.660944356930049 0 0 -1
452 2 15.785113285255498 4.533264203916666 12.023019112008837 0 0 -1
453 2 17.020346926977820 5.313097943672369 11.625588507012670 0 0 -1
454 1 2.672065249043063 0.249183908481003 4.110900969692734 1 0 0
455 2 2.118939073542111 0.461268595107925 4.862768013682412 1 0 0
456 2 3.211763644461728 1.029210385152262 3.982386545351063 1 0 0
457 1 5.656311735353747 1.772355432944774 4.114888111592104 0 0 0
458 2 6.357951008693114 2.108961254767038 3.557545347766920 0 0 0
459 2 5.808539641642594 0.827928266327732 4.148305038487986 0 0 0
460 1 10.266964006288326 17.568081867988680 7.010670088537042 0 -1 0
461 2 9.760984417297585 16.791065883318463 6.773051137058357 0 -1 0
462 2 10.814239021037220 17.283508396338544 7.742612880513152 0 -1 0
463 1 17.281166897720130 12.971700777209770 15.605660471438688 0 -1 0
464 2 17.113749556334316 12.725939134081191 16.515497837932250 0 -1 0
465 2 17.529835853674005 12.152435295758977 15.177641809735910 0 -1 0
466 1 12.094811407822755 0.228366625269826 12.710204975243242 0 0 0
467 2 12.008670345441471 18.605981692659984 13.631131744600701 0 -1 0
468 2 11.193628377214344 0.324001613375674 12.402057289014820 0 0 0
469 1 9.197029722976781 3.593442679509499 0.478488305633573 0 0 0
470 2 9.643082324890662 2.799064651433097 0.772142102925748 0 0 0
471 2 9.746720029447312 3.929605371280024 18.394627247582080 0 0 -1
472 1 12.540441008366873 12.104195150273180 0.716198442801329 0 0 0
473 2 12.536115054075731 11.455875758291993 0.012000312506440 0 0 0
474 2 12.138447960884495 12.881809958820128 0.328966432205577 0 0 0
475 1 6.301488754844326 3.801908770974824 10.358393831805515 0 0 0
476 2 7.107647198845728 3.491837377784274 9.945845016891447 0 0 0
477 2 5.602925617645984 3.496819440312792 9.779462108297071 0 0 0
478 1 15.383234119002351 11.317585294822447 5.659318256558191 0 0 0
479 2 15.936472603341490 11.132473195359422 4.900442077955580 0 0 0
480 2 15.740829070804725 10.768094779838128 6.356754955660777 0 0 0
481 1 8.650959499412416 6.515126057249202 12.691228099740062 0 0 0
482 2 8.711281791057118 5.905232082214524 11.955957761553899 0 0 0
483 2 9.421333086209588 7.076115754905732 12.601522261754589 0 0 0
484 1 11.364483321997572 4.737974242136195 12.482475218596155 0 0 0
485 2 12.092455692827320 4.586586295346187 13.085276664609367 0 0 0
486 2 11.582711635139558 5.560618983162033 12.044452323608835 0 0 0
487 1 15.035289327774905 14.338499220977232 9.601970594690725 0 0 0
488 2 14.804944012964791 15.229144185478926 9.337538410135334 0 0 0
489 2 15.138091033061310 13.862500393686604 8.777902256725740 0 0 0
490 1 15.202535929380542 13.663838076940740 7.113281574418268 0 0 0
491 2 15.042642305920767 14.469742944426360 6.622177014788769 0 0 0
492 2 15.063988468846953 12.963052526758739 6.476149944578252 0 0 0
493 1 4.413050846049479 12.577832097859494 16.960648062597897 1 0 0
494 2 4.039546118262586 11.912536308807887 16.382627775983494 1 0 0
495 2 5.070485139879366 12.108132064684890 17.473866388657182 1 0 0
496 1 14.924501696284622 6.906572746815555 9.736291583985553 0 0 0
497 2 14.706137652721948 6.257332987539851 9.067683557914478 0 0 0
498 2 15.474025830670698 6.432692773831414 10.360545283284846 0 0 0
499 1 6.674908504632711 11.519471519989876 18.532527419252652 1 0 0
500 2 6.802522153483541 11.840899200169174 17.639985308674120 1 0 0
501 2 7.550674270242212 11.265464631109696 0.199640056000895 1 0 1
502 1 9.176677733593513 7.745459954341435 0.411285111397223 0 0 1
503 2 8.345249724004995 7.277304346027715 0.335193608133944 0 0 1
504 2 9.757974652883071 7.130960574518773 0.859299297219504 0 0 1
505 1 13.265759998312030 0.979034259627902 2.438354660164054 0 1 0
506 2 13.227404813979485 0.127949757309529 2.874721499726832 0 1 0
507 2 14.137226499306756 1.316150756428310 2.646033893164569 0 1 0
508 1 15.037182372718492 4.819083834840026 1.572339717604521 0 1 0
509 2 15.246364498032694 5.753021529417135 1.587668349302542 0 1 0
510 2 15.058875647451020 4.553172532101869 2.491607136960169 0 1 0
511 1 11.837577893226078 13.340619627517642 7.108219434832629 0 0 0
512 2 12.050271156949837 13.424573574997268 6.178732987031845 0 0 0
513 2 12.598147520200830 13.703503636946289 7.562179353025959 0 0 0
514 1 13.914678980625043 9.394630147290947 0.435954312872226 0 0 1
515 2 13.999650415730446 9.447182264107703 18.107982665931940 0 0 0
516 2 13.004058568040033 9.138263430977480 0.581826533942633 0 0 1
517 1 13.572022030315065 8.139667113334294 16.318413671938426 0 0 0
518 2 12.730052788876439 8.310269646336028 16.740568333316300 0 0 0
519 2 13.928942355893450 9.008676193197210 16.134938730385606 0 0 0
520 1 13.605062608292831 13.530176729845484 16.121732520301247 0 0 0
521 2 14.164719935054924 14.305243324041635 16.169568510164760 0 0 0
522 2 12.874189485160720 13.795983472739767 15.563697244474115 0 0 0
523 1 17.315616534180133 11.770766800326980 9.988879868537188 0 0 0
524 2 16.487579835055236 11.319413366222726 9.824967308061494 0 0 0
525 2 17.536713507882947 12.178225576978107 9.151427836129553 0 0 0
526 1 9.379398821805147 7.022114014788070 8.561763909256419 0 1 0
527 2 9.034430846642367 6.337624410255684 7.988437596837537 0 1 0
528 2 9.833819973689820 7.623152807275774 7.971436919134951 0 1 0
529 1 14.268335089617807 13.206604761142543 11.916439928608895 0 0 0
530 2 13.936658756883930 12.312711041036549 11.831722353627950 0 0 0
531 2 14.674700260056240 13.393021114305720 11.070065952261613 0 0 0
532 1 11.242366083380054 9.375517685498080 18.028209966252540 0 0 0
533 2 10.632626463103922 8.712583800094908 18.352196256149390 0 0 0
534 2 10.685570419280435 10.114866934210765 17.784134679214030 0 0 0
535 1 11.567735621900379 15.110194037814102 14.180747230146439 0 0 0
536 2 12.047536999198753 15.344019176460925 13.386172686329420 0 0 0
537 2 10.728042736022829 14.776673665212028 13.864658714511167 0 0 0
538 1 12.943465105965132 17.219224720429832 18.590465611628698 0 0 0
539 2 12.785042464584004 17.856099610411317 0.663261620269581 0 0 1
540 2 12.069718387561860 16.936347242363688 18.320689369697190 0 0 0
541 1 16.758833450733018 0.415311555199467 10.616344067261373 0 0 -1
542 2 16.133920789315738 0.996949319175444 11.049257210241468 0 0 -1
543 2 17.537583417693740 0.443318505429261 11.172218068764078 0 0 -1
544 1 17.788554022624286 5.302387216599226 0.002542910666005 0 0 0
545 2 16.994954879949990 4.801844787946159 18.437097458657078 0 0 -1
546 2 17.498782812884983 6.214524531891650 0.018982256249256 0 0 0
547 1 3.804183992071616 1.929779684967688 12.334020910498712 1 0 0
548 2 3.580177845881354 1.303887567190544 11.645317458112297 1 0 0
549 2 4.734198303532495 1.778473452752734 12.502580860034584 1 0 0
550 1 18.542221015198493 16.189261289366655 5.977913988774699 0 -1 0
551 2 0.075786003823067 15.499267632130296 6.622362467561939 1 -1 0
552 2 0.526838840682636 15.995336534887272 5.265026449461192 1 -1 0
553 1 15.043671950350204 16.830131898608410 12.688261549192596 0 -1 0
554 2 14.709509862857477 17.559357778021425 13.210561886409055 0 -1 0
555 2 15.304965783377572 16.172895589696065 13.333241348485837 0 -1 0
556 1 3.601918454645238 6.607615724582881 5.221999578074241 1 0 1
557 2 3.843004530764831 5.704227751106947 5.017062611340351 1 0 1
558 2 3.112783143332550 6.905365355403678 4.454977008384371 1 0 1
559 1 4.497475505066234 3.744474651149288 14.679141665654340 1 0 -1
560 2 4.914966933383734 4.241921358279547 13.975948446461544 1 0 -1
561 2 4.225065527096060 2.925693232524128 14.264868756557327 1 0 -1
562 1 2.332104709404926 6.316053626633512 9.433709043958487 1 0 0
563 2 2.671508427000290 5.530716085575536 9.862990806740646 1 0 0
564 2 1.458464414940180 6.434716894675803 9.806407608003000 1 0 0
565 1 4.998456318231601 15.402752671909786 2.133203450692442 1 -1 0
566 2 5.589618464784164 15.765876130831020 1.473733639874557 1 -1 0
567 2 4.149769778699728 15.801088822222283 1.940093088371488 1 -1 0
568 1 14.653810367138325 3.146523619517611 4.477463275818809 0 0 0
569 2 15.364653044761965 2.547334250577782 4.249632850521671 0 0 0
570 2 14.244232290662254 2.751364789464106 5.247091398785076 0 0 0
571 1 11.538823215180306 4.446448210502282 4.092388349737806 0 0 0
572 2 12.472504863587416 4.332256124770374 3.915102553137227 0 0 0
573 2 11.508677268187792 4.929696333581989 4.918096400173777 0 0 0
574 1 1.553363934166320 17.027172974295627 18.069274238333882 1 -1 0
575 2 1.939330345814325 16.206793798916800 17.762288433535660 1 -1 0
576 2 2.295369936009139 17.531342510873220 18.403148625686995 1 -1 0
577 1 18.178863540615446 8.219602867042910 0.567744294573008 0 0 0
578 2 18.556055921040787 8.835114953404402 1.196316114414811 0 0 0
579 2 17.238490881948200 8.241558346091944 0.745086225935249 0 0 0
580 1 12.786935938618765 13.439762391035693 4.668899231728846 0 0 0
581 2 13.671116338283445 13.494804740342692 4.306368697691581 0 0 0
582 2 12.305106337369008 12.896822677768085 4.044968905263357 0 0 0
583 1 11.036449927339387 9.067998713423295 7.600311828618093 0 0 0
584 2 10.796005026101020 9.578114973509567 6.826877980912663 0 0 0
585 2 11.981541509681470 8.939855875092219 7.518992862783268 0 0 0
586 1 6.763008673914023 12.140103174871669 12.519844539387120 1 0 0
587 2 7.638293968481150 11.909834480171355 12.208261787881312 1 0 0
588 2 6.678453648387792 13.074301137442193 12.329170935181210 1 0 0
589 1 12.927469630609826 10.911565383262438 11.108404735381555 0 0 0
590 2 12.855173805491287 10.427684616110337 11.931123525079833 0 0 0
591 2 13.471912069937757 10.356194976798290 10.550392271843235 0 0 0
592 1 16.878231606434310 0.723141996787945 7.983619346265369 0 0 0
593 2 16.856284361872273 0.715546334853310 8.940537516167042 0 0 0
594 2 17.618883700461648 1.288728896983042 7.765038026696334 0 0 0
595 1 9.621607962269392 11.443753173410435 17.384413796477860 0 0 -1
596 2 9.696276908756582 12.305459750263587 17.794436209712938 0 0 -1
597 2 8.712145590723663 11.396205479669153 17.089711465277690 0 0 -1
598 1 15.070430180377778 13.837043823181379 3.272864089236581 0 0 0
599 2 14.889889559724281 13.323712966015536 2.485381427581906 0 0 0
600 2 16.006805833643660 13.714959155798043 3.429478504941666 0 0 0
601 1 16.085244893107667 17.462523535261420 6.079907556324437 0 0 0
602 2 16.256200172202803 18.103708954431077 6.769752959128316 0 0 0
603 2 16.900087184160700 16.965607997599157 6.006843569962420 0 0 0
604 1 17.778053140229357 12.585527452723273 7.286590895843558 0 0 0
605 2 17.145442154752330 13.286285414954520 7.128558897384051 0 0 0
606 2 18.024738784863285 12.283292990234997 6.412501237835211 0 0 0
607 1 17.290785669899100 15.197279215553690 11.266200919617260 0 0 0
608 2 16.578280381691854 14.688119808748802 10.879775541435347 0 0 0
609 2 17.056767651016420 15.273910253633089 12.191184738235158 0 0 0
610 1 2.516373106041574 14.290812235515734 17.659589707656682 1 0 0
611 2 2.303115155263958 13.920337308026163 18.516036568124967 1 0 0
612 2 3.285192352661504 13.799450277952271 17.370259231691445 1 0 0
613 1 12.315159946620291 1.736445934906988 18.359704852283734 0 1 -1
614 2 12.390394842982337 1.769526347143313 0.689370425179447 0 1 0
615 2 12.782679688758874 2.514131756986384 18.054970423007838 0 1 -1
616 1 9.979511863166566 11.383009148093180 5.959619520407817 0 0 0
617 2 10.054172379307845 11.277463843906114 5.011190263605983 0 0 0
618 2 10.808136219379524 11.783663989980393 6.222468319242830 0 0 0
619 1 14.617670941171143 6.114100063937782 4.758686190031299 0 0 0
620 2 14.938733121585075 5.228874029127743 4.930518012886799 0 0 0
621 2 15.322444844111526 6.687635068624877 5.059656907219684 0 0 0
622 1 1.163515601986761 10.604173425465493 10.207136260375792 1 0 0
623 2 0.240023133302414 10.846406757947802 10.138459520411176 1 0 0
624 2 1.298984692550700 10.436734162048037 11.139790062919985 1 0 0
625 1 14.131881215634225 16.843349233324510 3.448939371360393 0 0 1
626 2 13.806389022998355 17.290086144889670 4.230421100334999 0 0 1
627 2 14.541167733529665 16.044731076578973 3.781994300843227 0 0 1
628 1 5.113375890284222 12.404121337039708 2.060055925755278 1 0 1
629 2 5.616475085463128 12.405459636214710 2.874378632445051 1 0 1
630 2 5.689409904858809 11.981876746748043 1.422774900945665 1 0 1
631 1 17.389063313729960 18.114491996295524 3.600810565844516 0 0 0
632 2 17.604492243184723 0.406926123368411 3.773932160960992 0 1 0
633 2 16.588505472888350 17.957438679450956 4.101483568966681 0 0 0
634 1 3.231492365043623 16.423142611996113 12.336051070706601 1 0 0
635 2 2.782917449007597 16.710419847520466 11.540761917316766 1 0 0
636 2 2.755269160436404 15.639455230837930 12.610418460726665 1 0 0
637 1 18.136308750954186 10.345946965060321 14.694884346472112 0 0 0
638 2 18.303331023705955 9.841824999744793 15.491248853413106 0 0 0
639 2 0.336977941170368 10.309360773804661 14.210309794006537 1 0 0
640 1 6.615455923090845 2.057412180613794 12.726737018640605 1 1 0
641 2 7.251064942412329 1.470394313534326 12.317294577991470 1 1 0
642 2 7.073890271575872 2.894559233976339 12.799226169205584 1 1 0
643 1 18.335983933382135 0.448053001951549 15.755868314090124 0 1 0
644 2 18.307309163572494 18.115588547454237 15.780075357217960 0 0 0
645 2 0.537427719043861 0.652354889549141 15.316396267036412 1 1 0
646 1 10.382354018422523 0.009833006256130 4.085078021192601 0 1 1
647 2 10.010987020298133 18.441671559891066 4.946119485533406 0 0 1
648 2 9.669577309037653 0.431305782853423 3.604931199498263 0 1 1

Velocities

1 3.665113039486169 -1.569116780369104 -4.041617683352216
2 6.439548155007689 -3.018468855582724 -10.680246517089247
3 14.036833705953330 -2.645748884323814 -15.228168235643645
4 5.701588162855451 -5.664586358307890 -4.387272575372427
5 -4.429932456613172 10.491334950485697 7.662660356348029
6 14.536632861422436 -0.428846740098892 2.871133103111658
7 6.073086448392081 -1.387036634593350 9.820864543404896
8 1.357606062782788 6.078824691302236 6.320300116538256
9 4.548894864249340 23.019068937142506 14.034797219190365
10 -2.735320473905028 -0.787314466653175 1.510956283044343
11 -10.530948556798213 8.070959990692681 3.012613496462434
12 -8.831455904028380 11.065522293246127 2.533660142952348
13 1.337211707058688 -5.164410411229996 8.155737859822999
14 16.196274825856706 7.611935334269281 1.262925582848108
15 -13.914724857854150 -6.682143504272129 1.101821439727985
16 0.930863754587327 -3.367879647074912 0.653921662711136
17 13.737372040085346 -11.479402454517230 14.848848637956295
18 -6.938310447146563 16.457094888114168 -7.962056463543305
19 -4.734888887153738 2.726841874554117 -2.391453601475445
20 12.744225704739930 26.393614104574338 1.679027838419098
21 1.353604773914334 -5.012025935160858 3.770338360191014
22 -3.419199939644426 -10.051682257843378 -0.980210850049569
23 -11.775533564497795 -11.821527019999112 -1.381908100355098
24 -1.678972246510131 -3.974824809057275 0.888733361396699
25 0.790084380718925 -1.712452300277854 0.644031837336101
26 -1.879658067542366 4.819437658534197 1.124374457541122
27 -5.622711093861281 15.863540446759222 2.631904147002222
28 -0.679704809966931 -7.157695942159419 -6.645933142421382
29 17.788868441267952 8.907008234304391 -4.861980509297653
30 -5.503867949354460 -8.806676497520842 -4.176064266885510
31 5.316255028375113 3.665265783551993 -2.306348364719597
32 21.365532572753847 -5.184292811219407 9.813462156831283
33 -7.316769583734095 11.256469177193846 -13.847502253082481
34 0.670406273574366 0.920731931479037 -1.367372280802302
35 -10.161763852799680 -6.686422412846084 5.763538106303402
36 -10.102498813601167 10.175513813085390 -3.533991660196506
37 -2.190043486165226 -5.288487182781903 -5.036476189303701
38 -1.217886722392678 -6.885131732656523 1.870753796049546
39 -8.294418605576623 -6.287582763794542 6.955514925352185
40 -2.385487663586813 -0.041262870692644 0.313168308491084
41 4.048521453129158 -14.934482409053342 -8.293599222639949
42 -3.947275890726378 4.871331559032363 11.479966516563214
43 -2.257930241812164 -0.320018750686630 -2.182142070025856
44 0.431277977208353 4.314324703222450 12.780824344012016
45 -13.820948180429640 -10.759160266974889 -1.005198858196125
46 -3.002271666597930 0.280436950162481 1.945348690756122
47 -6.692055379352342 -8.726309519582533 23.260971131236277
48 5.168176072764335 9.518467310584557 0.194245491343945
49 0.715790737042569 9.284260236072935 2.622046080426489
50 7.048410239554731 -4.554534809681137 -2.143087859960209
51 22.397924402284240 7.685247891384540 16.138167695952457
52 -1.675664952187318 -2.895817285095432 5.298849629782948
53 -2.574709446710329 22.060447286923890 -14.716379441427183
54 8.089350354622176 3.103568820954528 18.363668787129434
55 -4.184492816230705 0.713348738431618 -0.049497849357766
56 -6.659191507926896 -4.139985126744857 16.884913852130902
57 -10.973009357426850 -8.640153317334955 1.949323592622039
58 -7.165187986140090 -9.908394820468376 -1.683421785767477
59 0.480739447167302 11.016694264812445 7.031878626919116
60 8.145659591456418 -25.379022411476080 4.992061874824200
61 3.394061475382154 -2.290861391518032 2.419987742709920
62 5.507510539216288 4.348863017987448 6.137852470255480
63 -15.481884238362071 5.673820221755160 8.682883467455289
64 -9.963429850251570 -1.336135224441936 8.602711946066953
65 -7.539745006916579 -2.732279164780580 8.706048188109314
66 -11.638058121813210 2.438964184929679 -6.540505685296696
67 -0.535437242570427 -2.130596655401430 -3.092275136225316
68 -9.759274140825426 1.100746028913408 2.949753281308658
69 -3.809530660100417 5.916891508851719 4.535475622093727
70 2.028175157652167 3.143318180240632 1.219909631413066
71 8.604836653707570 -13.609150294530513 -17.882997974753810
72 7.867659006534855 -24.000642792017253 -14.050231623466124
73 0.358090123433582 -3.760489462105534 -1.352930958480903
74 -5.219659976414040 -11.105857911092398 15.858421024744558
75 -10.885619195676913 10.435249000884590 -9.007980111594685
76 -1.971070215196300 2.922086076334453 2.071553747984820
77 5.268189522376163 9.208648676417295 -15.850698916429970
78 4.392903850366428 -10.262595499362752 -4.706028230532986
79 0.852322917157525 2.608700809773330 -7.282158276591190
80 -4.205514769555730 0.536786923545110 -14.584863368394266
81 16.241349028677198 -3.839450756315791 0.669554694777185
82 -0.465585434470367 -0.801770558716949 -0.713452708157157
83 3.104332479957186 21.248505611199820 -3.518314995186460
84 -34.607521408597210 -0.205245411551193 4.117846044757820
85 -3.080061804806830 1.487991687663229 -4.953369328572129
86 -6.523184359605245 10.097974907646431 -18.939013380163686
87 -4.930677680487567 2.587885515826942 7.613687579147561
88 -3.383725789837923 -1.906916496562799 -0.780255217913771
89 12.433985062950625 22.718999206794930 0.901048994376092
90 2.856285835541511 -16.249362777166983 8.249323907947836
91 -6.745116038850456 -0.080198281219305 -1.967533721067893
92 -7.766324256602574 -7.003029427621219 -12.239146097698356
93 -1.610485952829215 15.067266979301344 -8.216491015819671
94 -4.462689957439738 0.670305100915357 4.851965028960168
95 -10.338472821393368 -8.945136411862955 -6.099033595862925
96 10.029026967597427 -4.226020410788710 5.197135842749201
97 -8.498460945693560 -4.672851359689516 -4.326045325266981
98 -7.234212152866291 -24.745619011922723 -12.923937552493742
99 -9.198882384585513 13.509796402927739 2.030893566655131
100 1.873745283735060 1.043905061016672 2.331918848614036
101 7.145935047234504 9.467978417236756 18.416515833848863
102 7.594833058965467 13.246158265654454 14.787277720715790
103 3.981987740699780 -0.372823865553636 -0.654822617589636
104 9.333517992563120 1.227806225049988 12.810361272481310
105 1.102552149989668 -9.250209728650097 2.019067377864553
106 3.102499564677264 3.269853773064419 -2.208249789725735
107 -25.800465624996768 -13.649120615907995 -15.340092574974037
108 -3.008575217333686 13.932342091080931 -0.600774581471856
109 1.453290681971634 0.298716366563538 -2.834625269213829
110 5.875884415063625 5.838073459802906 10.891978436226966
111 -5.632930407291735 -13.033715286094432 0.059199834755315
112 -2.356955546662487 -5.467975425539572 -4.953083196232533
113 5.852629887197118 -12.186231575051654 -1.586354597302440
114 3.227455550397876 -8.321628513942336 -4.297132700492340
115 4.901581069579376 1.681833208870284 1.060850262119964
116 -7.683992855938848 -0.261769101637342 -0.907554549375051
117 4.686746492106623 0.186759799149839 19.189281831816233
118 -2.104922632164246 -0.136206809843344 4.545134557453142
119 4.859803012779622 -0.608831311039211 9.672831246672226
120 2.758781363333370 -1.695295437884013 10.712147463122900
121 2.425222522053555 1.153776007535381 -2.309003077561848
122 -4.623374476656204 -4.354463875270422 5.114398109922591
123 7.512310073080922 -5.329912582195239 8.801763181784336
124 1.343490179512459 -4.332505293073346 7.925565745747288
125 -4.271707727687197 -13.285450224370454 10.359929048282618
126 -0.062628778249725 -14.035347231444163 0.063364139534318
127 3.733121508070752 -3.005958051319443 2.749257680016964
128 -4.752948447894120 -0.396965481322323 -11.235929645592408
129 -10.671251918455542 -6.949685692824848 -13.775220423404998
130 1.944732456519555 5.381484316498858 -0.014125660603936
131 -9.482865797850485 34.360468909136110 -9.908959060041004
132 9.383206610192728 -17.226823515644845 7.162304113326055
133 -1.240507086659683 7.284571069100421 5.625475452280970
134 5.313972846766116 9.211734830274166 -7.530729270428560
135 6.952385863920912 5.862396561988595 -10.341342377230063
136 -1.550658383103280 3.015686811464028 4.130181368285965
137 21.441756237419285 5.669669509872172 13.191203872854950
138 3.172333885508192 7.880165827937918 -21.929173454646730
139 7.447178682875282 -0.177870835288572 0.693667102155693
140 -1.727329499675699 -7.050840741635696 -8.884550630387279
141 5.173658949161623 -7.753257944743451 -1.726141736537025
142 -0.302840481088869 -2.880158734610911 4.861379168682459
143 -1.366718516059526 -12.338764572834980 17.700745242798504
144 -5.401849473544693 14.490528406341205 -21.820306081449286
145 -2.055549171907802 -1.059583362283663 0.945534803783501
146 1.117957273158539 -0.776481558231182 -2.651140116948092
147 -2.690525343378633 -1.912397256022299 0.882366949218960
148 -1.853093135811158 1.324022860432606 -2.228072770687799
149 -8.078730978511979 8.195361864480166 18.867837312450020
150 6.239435824125774 5.944911208274882 -6.660521430409174
151 4.443661256012205 3.266213103599166 -1.852853226730298
152 16.554346300805750 2.707467345450823 -11.098779614967627
153 13.960469003545627 18.500767910423530 6.689572634672548
154 3.313471590575974 -2.610706441002990 -0.062420180636549
155 16.682520693677630 -21.987041627772347 -5.500692070728898
156 -19.015474185750184 29.684167064593200 14.280722142259636
157 2.358220874636517 -1.190959938995622 -1.160111536098975
158 3.447717032092521 9.494460114269647 -10.296758106940484
159 3.514090040741197 -22.810049516294666 -4.335888251852021
160 -1.023990055718476 5.533344555180258 -1.365126975769068
161 10.185271443258878 10.692517869066342 -9.195723698423836
162 -15.303942921479706 4.422274348599542 -7.749438954176378
163 0.233717076472736 1.341168017234830 -3.335279864173362
164 2.092264233767874 4.852351483912844 -0.694057454850952
165 3.582679050699682 7.992357957096892 -10.134928026097218
166 -0.466031620042471 6.419397106709335 -3.013222594295040
167 2.247215987935558 2.115659616994734 -12.364112554701481
168 1.200543757433973 5.518466266854346 -5.945874751411634
169 2.876038129321930 -2.231376789303640 4.944456378231829
170 6.186916252886201 0.819868906439655 13.747034697474668
171 30.063464008615690 -6.305567787624700 13.901479870101199
172 -4.021945719063068 -3.939962920364248 -5.135647509193845
173 -1.732518371531540 -2.774633053827519 2.879076228298378
174 -9.960696722651970 1.965933930089169 0.356873160106513
175 6.531838246113832 2.979679852721201 0.280315069253347
176 3.090867721818553 -5.553042655580258 -10.519041103268045
177 2.162081745403764 1.452102016637126 -0.564984745488283
178 -4.686750982791039 2.500371532222975 -7.479612393991397
179 -4.285953893217923 -14.261715177923656 -5.759645722006710
180 -2.910472827943360 -12.543761416436719 -11.423231118020372
181 0.245151821984042 -4.956716691834234 2.610768892327434
182 -7.202440892934025 -6.600486734723174 -16.648341019243076
183 3.289090454162146 -5.304540530347362 0.835386220027984
184 -0.707074373517744 -1.759683995504391 2.034879430796540
185 35.418436367677660 -0.925566199465016 -14.214020690649170
186 -17.700124573472878 -9.309703506919923 -17.631839374088940
187 8.564401003301136 -1.791477559412329 -0.125671341328306
188 5.196511317834604 8.019615549735352 1.615217792253358
189 8.638980012140052 -4.471839922617442 -7.208037144195535
190 0.598091785223843 8.308889365815865 -2.630303276953096
191 -8.194082442610986 24.707791422261555 -4.846423646897631
192 -27.882857361054718 -3.525809001839930 -8.430589104662236
193 -2.746710276767808 1.201029199725200 0.348708343786406
194 3.266561147934138 -4.544199386349136 3.973317550260241
195 4.366231574639130 -4.430185733336663 1.681710167509055
196 5.184994838335469 -5.040901687355920 1.892101560568007
197 8.524677034670912 14.440658289513240 -0.828024628489839
198 -16.250901798997932 -3.326416992132157 4.006636240776804
199 1.650049154017263 -0.512779284262447 -3.146021511224361
200 1.022178691448132 -38.330226712578280 -1.054093857631744
201 -27.727127564096857 12.001518383801982 21.621756066665852
202 8.232724417880439 -0.957362618007221 3.570834055405038
203 -4.557134836009154 20.624966598157483 6.689185221865186
204 -3.908139844719875 -11.966709375446540 5.169409795522448
205 -2.440142998866640 4.633892958856774 2.239499476477596
206 -11.338231200771782 -3.793077787051839 5.623077314521736
207 -0.044276826213046 -11.430810907453525 -4.602688157533486
208 -1.987244841941355 4.459168342093900 4.250742368617120
209 6.788459923820881 20.755030256794812 10.251033342363951
210 -1.716347704628762 7.375233821969554 15.773208841116150
211 2.432600404997635 2.813280825905133 -2.943216869875759
212 5.436902654266775 -1.217331568561557 -0.445805818817698
213 -2.969350063946255 -12.337556683729307 4.126030967928466
214 -3.047417282747830 0.469332470351524 -3.386008159965045
215 7.459921624987182 -8.226640703871397 5.558328878657769
216 -3.307297989435029 3.249980470194493 0.555863696675452
217 1.972813451388887 -1.127352321964419 -0.963799027710805
218 -1.305248519779680 -9.544009776701987 -11.772459170427713
219 8.737892650569347 25.620836935977557 -7.676884662846029
220 3.586804394818971 -2.400744086187225 0.168482241876586
221 24.745170101464677 5.078602645804242 3.677116831246736
222 -5.008497203673508 -6.933168646552065 2.447714561053790
223 3.921576189980692 0.756558155720192 -5.067107607511971
224 26.411565492766683 -1.775214803435004 -14.152716157694313
225 2.192290140702302 -10.320364260323500 15.053746127383054
226 1.317150474355359 -2.708289507369825 4.388413415343004
227 -10.737998734358696 -22.034292674611870 -5.085611080143891
228 -2.744422980352390 -10.931289861681010 2.511796133558275
229 3.474640741801935 -2.242879179366419 -4.342159116069715
230 -3.371639515171647 -20.158772159846912 3.231109020642946
231 -13.247049287758708 11.747118317944305 -6.086967559240424
232 -1.636616263102759 0.699661938165567 2.129556067901451
233 -5.070422851739484 -6.918272995926502 -4.008662341262193
234 -7.514531643498922 -2.637895868040614 -3.531362439625392
235 1.569139816642759 -7.354750480163988 0.686592310900459
236 4.477135227323154 -10.250572409598122 -1.051316367220102
237 0.876001629753434 -4.139862074133069 0.309417121997239
238 -3.142047809827843 5.347353184900606 0.940432783322112
239 -17.202044352204224 -18.801948964100177 -9.295437267544383
240 13.170406587788995 3.848560457576914 -21.942559558787662
241 2.663749446858212 5.138066704485259 2.895548894310927
242 0.568423514898908 -5.655693753449655 2.156502783683149
243 7.983068318364630 2.924729402802740 -6.392608099624543
244 1.430279435850421 -0.741796564868624 -0.740567345288285
245 -16.025664004318920 -19.529755334660934 -4.005374089232509
246 5.673349562382720 1.441746013222124 -3.237042502598614
247 -3.269085003674901 1.257218061074901 1.103058349225347
248 22.672833051810020 6.808063970094119 17.228063587013840
249 1.489423818881931 9.364679229186323 3.650295083693389
250 -0.587028445140188 0.718629091217705 -5.546026587351311
251 20.615433317295000 -19.664969637290548 27.745973165188363
252 1.542542904747068 -11.262481488760865 10.510103806323130
253 -8.127733446663983 -0.252818100990735 -7.235071583337208
254 9.575912201671049 18.795393984849862 2.129301859229196
255 7.865680834969144 -20.020910960301553 -17.239019726898983
256 3.759460078794699 1.350601739903960 -4.449907379635280
257 -2.444664713741951 0.144830387778449 -9.224181570127464
258 7.456321616752392 -0.375493984638852 -26.530666313985575
259 1.360980333639637 0.012379894129285 -2.138572161062617
260 1.942148489111097 4.221069766285215 16.407571841277876
261 -2.757722211579229 3.256579116547903 3.821282480091835
262 -0.235854732276791 1.028614345988664 5.397141343702150
263 3.210282672580874 1.404079895952920 -3.501329882544082
264 11.168775568283284 -2.520980863278914 3.922979336478747
265 -0.078800395179450 7.386140205874062 -0.896203680525240
266 12.422657042088840 7.241315735248865 0.850743596017248
267 4.206543234247917 9.115858869449664 -0.386744608987110
268 3.169758974293764 1.863503556081911 0.350509503435694
269 1.275334614999122 -5.042935754876822 4.626855803593668
270 4.777649462546200 7.153084621414051 -0.653814308716597
271 1.976282045541581 -3.099906199809661 1.703605686012589
272 18.441218267966070 15.446313541283228 2.847519831265829
273 10.508476342715132 16.891861260817130 9.452329899615246
274 2.529557402730967 -0.256749602976006 -0.739596362361059
275 12.899301805379012 -0.237861905286071 19.755392382255463
276 4.939998040637357 5.392069716995829 -7.210090723685938
277 -0.476408501816545 -0.521389494129407 4.959508997424545
278 9.832764824962400 -7.586508532454558 2.770607364110265
279 -10.290862712830395 21.231773227796725 13.959406011198125
280 -1.645432681915810 0.195244249391958 -4.378420710501669
281 -6.725408037963218 -9.411457798519606 -7.639947185405317
282 2.104812038243494 6.156444351385293 0.247626965389935
283 -0.774768712774983 -0.725046131151453 1.947855975575340
284 -12.992006529434974 -9.668535233960456 1.193934566721638
285 4.344475706367167 3.111203956050578 2.180875688204279
286 1.720758791604552 -8.105917628062507 7.133553511372290
287 -11.033894080284228 -1.799406443318131 36.706724293037764
288 -25.774695932428444 -8.784298688451190 -28.956948486787187
289 -1.455996404468163 5.118607298633680 2.036061928180620
290 3.437229412710217 24.998496928253275 15.418901825901922
291 19.876576054533070 -4.740437397259809 10.128771625725596
292 0.870421637088054 -0.399932038792974 -3.753796407386673
293 9.286925274908010 -15.686046906651662 7.136478478156291
294 14.264586528545132 -3.392877505069558 -11.832348718331815
295 -4.907657675112449 2.597591248380935 4.542186289779914
296 1.890750109062350 -0.080075448175306 5.704786543991139
297 24.507560631539820 -5.324948580613527 11.318159333693550
298 -2.515251221598629 0.359060809511708 2.030607380684322
299 5.919073017420015 2.474714001548801 8.621364533097014
300 -3.786508254027347 -12.918358154976339 -2.179864011471063
301 1.407289655135940 -3.694149340976330 2.639889393591967
302 9.465374430404211 -1.853189426663806 -0.261361175458335
303 -5.771721336328960 -0.301159270962897 1.904606467129424
304 -0.140964599825000 -0.713707448115122 -6.828203493845971
305 10.099537913495398 11.438921547788830 -10.650246013287902
306 -4.622225223420688 2.227762109703167 7.703429098744371
307 0.274676850677652 1.017928312339875 -0.735643783426255
308 7.601351141931315 4.643928662811000 3.826199055907117
309 -1.492073517761781 -1.073246794806450 -2.681856329271543
310 5.643234943250678 1.010130047501806 -0.692695358288618
311 5.455960733224681 4.457827677967000 1.750936393708007
312 15.151902903378896 29.419665118645270 14.658825047262816
313 -2.288583626118578 -2.430957611322626 -0.024026404204263
314 -0.637436904632454 -2.501476031881993 -5.282550006100478
315 -7.884960166084178 -0.966189754046966 -0.465279595783344
316 0.429655554893702 1.491937895509225 -3.141826994463914
317 -13.418001354244395 2.043791464883031 16.835042701160936
318 -11.879513571448280 -1.010005490650717 15.743563665970777
319 1.617837286834834 0.079182354314207 6.492814862347072
320 10.001350245188851 -0.347988111459809 26.762822524242060
321 -28.849750579763870 3.362015967566161 -9.078832340954014
322 0.666754131075089 0.008942614286927 -3.616340082675439
323 16.299412928084508 -33.356265708389295 4.636390638406715
324 1.857388528736562 -15.823459040455776 -15.230240752573591
325 0.908045433900558 2.536052011671436 -3.907532038656516
326 -11.813861132839033 6.158587139231660 -8.459973831711053
327 8.925952960861556 -0.746483185215774 -1.640736701481635
328 -4.944832713277412 -2.054617123099197 0.702704891249972
329 22.391998779777097 0.865842165147649 -16.578323823141176
330 0.435980231840478 -12.400633754068900 -1.050993455316525
331 -2.683844662401435 7.223886715607773 0.427307072548396
332 -3.552356028551999 13.738465151495445 -11.146235238706175
333 3.312194008278740 -4.846135190373706 -3.184647024409852
334 1.875501499963982 -0.190201820128352 2.139796048033528
335 11.720452800305682 2.788077980970909 -5.598868829454017
336 3.213966011432454 -13.136308256316380 3.442759663394202
337 4.253788992542453 2.890585251261352 3.561859109977548
338 17.362855873726150 -8.135674367609636 16.806170129569347
339 1.663281966374403 7.847578241747062 8.660449627399897
340 -0.408005537441167 2.565572751387398 2.754674389339158
341 -8.771513477655380 -10.358075807699138 -28.103882195095530
342 5.805464689358510 9.159464759570827 12.179036838084406
343 4.653012704316743 4.622742739017077 -0.199864918381758
344 -10.820236824688753 6.555894455002616 20.391096737754286
345 12.694550664648084 7.681183897103139 -17.084282995126234
346 -0.839468695050994 0.586918533750609 -6.362949527796662
347 18.239291923175225 -10.180793535558680 -13.069028048473727
348 12.933082345427144 -4.505936112107596 14.329353259335305
349 10.602525921548422 -4.411194445686222 1.721878999000851
350 -2.589694355385169 -17.817909095647386 -2.205399291155482
351 11.094285681885484 4.794757609758325 2.504791557153871
352 0.236482397512676 4.102622779381170 -0.993588823434687
353 0.865911844211170 5.842139094927347 -0.492999018271246
354 -14.399688143842808 -2.535067690119031 2.224487278551233
355 -2.848668206649624 -3.767687361288665 1.980309091326486
356 -5.332448215077545 -1.849389531702544 -0.745737329602819
357 -1.720862768772823 1.064948559598253 8.198590748773856
358 -1.919513454414440 1.956827842923285 -5.251378595137093
359 1.115234877637466 1.680405408285401 -21.395178499134103
360 -6.676358441882188 7.400176359991692 6.235321464446967
361 7.840089145388423 3.046401913929216 2.941437229641331
362 15.493965979090593 9.285479002334430 13.067965105908650
363 17.196014287282990 3.584186362606672 -9.396663940626070
364 -0.996782959909362 -0.287716715213666 3.141802123075721
365 -15.459621715292363 -13.485842470141089 -35.727632790099510
366 -3.980768047864504 -1.707482368603293 -7.958842964607105
367 -2.029090803401039 -4.245667026622962 -1.656525134552375
368 -0.106590059149740 -12.932349516285100 -11.170923622803960
369 -4.382267794340566 10.561069664693262 11.073241044693663
370 -4.709173830258238 -4.112126673907466 2.634420669994466
371 -13.057443988272730 -2.693685576978015 -6.403056978481422
372 7.580868908575237 -3.150456825638884 0.403438752796829
373 0.302673303789291 2.621236004616558 1.225620851210997
374 -5.032455487848812 25.809584363856340 -2.223072910334854
375 -25.584113106341424 3.048101159348638 1.264377324632957
376 -1.527336370861228 1.915228967505896 0.460531351683122
377 16.570840431810520 -4.045804044556806 -13.481502457750047
378 8.164144552299845 7.092284520783941 -17.957981696693166
379 -4.913504920934302 5.585125991402162 3.636243211225699
380 -11.934242033828200 5.058454056523508 7.889814402949709
381 10.320257488668237 4.146268435913250 -10.875682395500590
382 -3.876403927208091 1.252012552223885 -4.925741567354648
383 -3.919345280466144 0.081543820733461 -11.484177976026558
384 -8.235082191645008 -1.281597675465881 -1.754329836780963
385 -2.882475205870074 -5.215430832894542 -1.309029740532009
386 8.170535274278806 4.692853418828069 36.175257991788800
387 -6.574349272901934 30.545644181374884 -21.051774827086480
388 -4.056163000235624 -2.720655570304862 3.799438021777550
389 -2.219157805738620 -1.046785937158702 7.677500255261154
390 3.961522375073110 -3.137304509102667 8.190144880438960
391 -0.955498992923599 -0.739632156896614 0.324034629519874
392 -15.235191411234235 -8.286393011763076 7.851848814754517
393 -25.238416885714234 1.688617562973472 -8.659030190798498
394 -4.636471896784713 1.971521588307421 3.737368850117659
395 -1.981017463998244 18.190952935649436 14.280083536404855
396 7.105207895217652 2.799369534421111 -10.860894981054232
397 6.102489132700460 1.955268464005348 0.285848525505110
398 3.511524886269632 5.324912886996096 -24.636657744448640
399 23.884971926803700 7.546775100691101 14.945870864827845
400 -0.491220400089266 -1.159574622304300 6.649761943064332
401 -1.493063793031991 0.113503236162359 4.606283692552986
402 1.117800529058101 1.226335887015474 6.257988617196621
403 2.246035775453252 -2.011989790818562 -7.205552188347542
404 5.674978362941265 2.056566188390534 -8.347450544078532
405 11.068030869022314 5.616819677001114 -15.053732653459991
406 5.631277058325451 4.370389715697548 6.076433198652575
407 2.508108580492566 5.500349433905615 27.550101604845365
408 -11.735229752426750 -6.301689480058731 -1.415088461063627
409 4.272651672305495 -2.552760650597873 2.349184342749222
410 6.536091780784726 -6.413306071558629 3.465798574992031
411 8.955620208133511 4.673080906837733 20.283749342737765
412 -2.520990273331381 1.905362219907641 -1.463169627046602
413 -1.688359061285971 -3.789061145847822 -5.195580027071336
414 9.688839277311234 8.333490567521194 6.775943895343435
415 -5.083689876419033 -4.871380059315688 -1.205757833822141
416 -13.033944072819166 -5.931528817717023 -3.982691821721448
417 -0.273489440984862 -4.364900461611459 -0.211055461802544
418 -2.512822734824230 3.957897686970561 -1.522009339260950
419 9.836428054826275 14.628883474978680 0.684274895130663
420 -12.860608183133884 -7.567305383414662 -1.283510523371589
421 -2.404812957734971 -5.420372822471909 1.386396553599690
422 -0.582504033424203 -4.089361324327244 -5.605963876350767
423 -5.412294526483300 0.220488479465425 4.691632422315823
424 3.292583761924791 6.504947301763752 4.760029336430321
425 -0.341610766376540 -2.686923914451137 9.973587676339508
426 12.709554048103495 6.950440140683894 15.987398309567635
427 2.906379113943080 4.860374260740251 2.944052845981901
428 23.923627146045682 6.002456421230973 -17.749732218329352
429 -20.271661853087607 13.702830451228918 2.148837038338779
430 -3.806684467058264 1.073952327924467 -3.701986465953067
431 -3.774442190714814 2.844957725005984 -1.012128306154629
432 -3.588205984139903 -4.040588431900036 -7.464596551968795
433 -3.265636315747434 -3.297691326657973 4.066656963631594
434 16.857194728620073 -2.368792245665716 -9.581004615378124
435 -21.029663905888060 -1.782480972889882 -2.550397411430076
436 -5.645984131080510 3.558971707229988 2.617179636621900
437 18.549149191240677 -7.161155424379015 3.059936359628886
438 12.833846736878736 -12.369616634134850 1.384742614962896
439 0.795922537222940 4.681810181597719 -0.866179120238900
440 -8.200795952658761 -4.105272225876979 17.431533122806396
441 3.210351819374418 8.769282893400981 -23.398876323472360
442 -9.570724649597570 -6.611835981775569 -2.401451558841604
443 6.592867971863772 4.900638471193618 -20.072242199444390
444 -0.791589140216348 0.424042284267766 -9.957772145507759
445 3.489367164323048 -3.348662493179541 -4.762345614447120
446 0.513179168320118 5.496873951432565 8.162020671336930
447 10.504524647165460 -1.717517659224007 18.152522002104102
448 -1.562277788958670 4.621238260992353 3.142922468277613
449 2.180765253660565 -4.457983788782511 4.207836831763503
450 16.744774499129235 7.494657947144160 0.254315523130357
451 2.381366087575269 6.526174747418762 -1.310401929722004
452 9.153658073338468 12.298150235778073 17.310948162083040
453 1.086749588816356 1.762322067982089 -28.423508313850352
454 -1.152449534696589 4.074235016811328 -6.083952134042008
455 -6.422555968742799 -20.686428344863513 -3.000527976248214
456 -8.162928283178385 12.608605616574753 16.351936911368390
457 -1.062411506047915 -4.749626012494497 -0.458868755798220
458 -4.926231942532391 -5.843222950081929 -5.982657311319727
459 -6.892197863128465 -5.964229056034984 -8.070364837859930
460 -1.147977081807396 5.783849185990228 -6.208679047343063
461 1.077841988935167 -1.908108808343474 14.291414093451254
462 1.590332321735742 25.940222394263267 -0.446083033110499
463 4.175106262192472 -2.735914702635331 9.915049930460626
464 -42.237944815340274 -6.328316719403839 0.443920871853571
465 20.919923485064273 -1.976525310481199 18.235024919993025
466 5.341992568617231 -8.134546052986318 1.149387675484460
467 -6.151966488739329 8.093977113011560 4.429115350598322
468 9.232574638731152 -10.649188465856572 -10.984562194064440
469 -4.175594566747922 -0.383575971236985 7.135704125743488
470 4.399298371026170 2.698124201932753 2.444636015591322
471 -10.827348580671610 6.626510448565150 5.297416459651215
472 1.619543187908632 -2.271212835918481 -3.262698879421375
473 13.559127163248936 3.419470554754834 -8.572098609765525
474 -1.385314700806374 -2.508227901439102 -0.625698870692884
475 -0.466054654533679 0.544803599820102 10.524407163416495
476 -1.088611492812006 -13.858685790961478 20.105238255907334
477 0.410325075379916 5.208313530966611 7.008195732235339
478 -2.182207348026553 -5.974874903647534 3.178110658278032
479 2.716978586176976 -11.822711970508784 8.171513484161662
480 -6.163938260869529 0.015587538330720 9.945252438381128
481 2.507392219545404 -7.822945776591048 3.285004274714617
482 -2.692337089646895 6.502579654555090 -9.064682931274350
483 4.701592528014224 -9.477288036744832 11.822859973003532
484 -2.467728305515193 -4.461346267366806 -4.318160895452890
485 -11.658575362646903 -33.657678126512580 -0.586034025954321
486 24.475974817684557 -4.533352229531174 9.013116727472513
487 -5.664140099866440 1.647300331557066 -0.623875134904340
488 -11.004738171403749 -1.561660505000323 -6.800236042760437
489 11.279341522317967 0.105754717292154 2.379896522777246
490 -0.216466357224081 0.485906923717824 -0.660765717343594
491 -5.299594949339072 -7.793126905556477 -12.589640209958146
492 11.997277691383458 -9.500150723345858 7.661464501094660
493 5.248138704803540 1.046145744059271 1.666930646384723
494 -8.268550343744699 6.102520088756035 4.574034181254775
495 -22.924084723676626 -15.758498184200092 22.296137850401663
496 0.997022090188859 4.478616661723243 -3.108185855136438
497 9.805263804228411 0.579757636549194 -2.207719436327828
498 -12.708955894242724 6.376948352508065 10.381878419049698
499 -3.931697395623592 -1.226467426553354 -0.387250882388474
500 -22.107477544345045 -6.424157589238266 -4.876625438590697
501 2.332066230831839 2.426176536665904 -15.976846987656536
502 5.312333232204947 1.006858738844289 -1.472041089635284
503 -2.749015824860133 14.843819028338366 1.548511371643053
504 -8.505818464889525 -1.981862806569710 12.337479296687241
505 -1.604274641455696 -1.933656683970765 -3.779315405224646
506 3.690299608877197 2.966350454586006 6.225030554396776
507 -3.616343684768329 5.819333098617860 -7.942560325809169
508 5.527620532505690 4.714959331359184 0.295489329759317
509 -14.719263827493140 9.366758495310762 -5.804054719304881
510 2.988489275504761 13.055624526536408 2.774781919422861
511 5.300325205120360 -1.013891346865439 -5.441878082682655
512 10.530067773090485 14.457137020791945 -2.854696058529724
513 -19.370962283637630 38.693924734991420 4.070834420787583
514 -1.681841420457417 1.530463074728943 -0.503565190073121
515 -8.446686735361185 22.049783226510570 0.047294429372366
516 -4.218105196109645 11.367536515479013 0.878832959009653
517 -1.306230787333134 -0.326374164712276 -0.557523617617408
518 5.509260103243372 6.475667318585145 10.316446087340772
519 5.693355905698306 -3.173627032810578 -0.453515036436230
520 -0.698757355332848 4.482520019027082 -0.107508054893986
521 -8.848962997669836 11.617520199228284 -20.238454674054707
522 -15.084819065483956 -10.491418844707714 11.600547427470864
523 0.141062208527557 -3.541875444155920 1.435838303926283
524 -10.038899451750667 13.223356438009632 6.689880254121685
525 1.904722799578488 -6.071494024077535 0.668268180112865
526 0.734038368268190 8.215507692955468 1.472732147632622
527 -8.225421526405739 11.875755170611605 2.503390499041425
528 10.563554972082964 0.154528496747461 0.839244956770752
529 10.180044477732658 -0.644324679297024 -2.486103781109752
530 -1.280899770659319 3.423693833228827 -0.441672919043624
531 -4.940602951579662 -0.617552792552436 -9.728023908821645
532 6.076773116522023 -0.187601588083837 -4.454164292782035
533 4.926744792450390 17.923138337257012 30.537946746902127
534 13.064302321029654 12.259031692491769 17.301876077596173
535 -2.207250635696292 -1.251355024916327 6.254957954758955
536 14.855767719568235 -8.718763815718608 14.342286266783381
537 0.742937686466703 5.011324346009583 -8.231200270714266
538 -10.087383048968208 -3.790905090956588 -3.738414918793679
539 5.141323388450385 -5.641141418700100 1.406891709857354
540 -15.832449709018814 -6.921559311226027 18.139918953444410
541 -1.680018981377988 2.924471966917096 -0.189944958960386
542 1.061613791756318 8.202737884644363 -3.314908506916291
543 -5.902816869962094 -7.338711611958981 6.232888088576509
544 3.145416822162439 4.641790584578698 5.283585204396624
545 5.944105862666940 0.063288972892958 5.651662566688876
546 -1.919502267629656 3.049523534012025 4.418573684750954
547 -4.181955700033961 -6.028050977347395 5.406618428154780
548 1.163525352904302 11.836057190775705 -12.555382175908110
549 -2.697376115666093 -2.334497849432443 0.499282300017209
550 3.780525623480113 -5.034278343235684 0.259964691533046
551 -3.594744684806435 6.013183968461961 13.897371455911195
552 36.254106950270780 2.630516766058967 25.856225536469515
553 -3.873517708307111 0.949571653153161 3.210184952275826
554 -8.662307416449074 -3.484574458749800 6.341066956737405
555 4.146509449252770 1.505072714032670 0.516049654041561
556 5.356015537439395 0.476152483720145 -1.082742999435250
557 -13.953189857870727 -6.732153305282880 7.886355741000750
558 2.766238524667307 -0.140632497506609 0.318863621236635
559 -0.948056229003793 2.226652318152764 -3.063071366626109
560 -7.259857136644371 8.204162427090128 -2.582776413231503
561 5.148260514138067 1.174100453638600 -4.986628972036245
562 -2.359899175776157 -1.704380577939370 -2.290454772349217
563 -3.962557626351569 -8.045180606026927 -12.588441258818042
564 4.718537252659518 5.124435886873011 12.040007647183089
565 -0.401366540757491 -3.517230400895393 1.310358652827002
566 3.167587254124266 6.861146497298335 10.192887072201850
567 2.415187499375410 5.727354076988534 7.960127001053158
568 -2.027214803967172 1.452002016237754 -0.750147225025810
569 -4.687366039722849 4.811487805519295 -17.852364326547087
570 15.615111029041964 -2.736543661001772 6.470229950617534
571 1.858691901917448 -8.748647912748802 -0.682310977435197
572 4.070343433896863 23.369717729868345 -9.917585393398750
573 -6.173240514266911 23.985476212333764 -20.129610931631660
574 -3.666286394801672 3.436915711614617 2.916954997202348
575 -7.655534669220874 11.717969401044704 -24.219146593443548
576 4.232970860547843 4.948738312274735 -16.846009472671217
577 -6.334331173016298 3.404592563874468 -7.022921890486883
578 -9.333976751093048 -12.663382237452706 10.495410270180066
579 -5.424985994376940 -13.138830614344302 -0.313686245319334
580 -4.140646088291930 1.272419769463756 5.201016946219926
581 -10.352846516697902 9.510636120690715 -8.661974440031990
582 -10.756299851126534 2.723069299586213 9.048842838917187
583 1.747917376925996 1.597652956425377 -5.486721673458940
584 11.869906314037577 0.998005408941416 -9.042082586466960
585 -3.213168622085481 -30.689091706852370 -12.423916826104138
586 2.410841482774639 1.873255238228841 -10.167551211757019
587 -1.242108784307447 -3.754922165822749 -16.238742930624047
588 9.419040958324132 3.746289707068694 -4.076226021083361
589 1.209025772577812 -1.430212192849210 0.956480138539908
590 10.647509210748520 8.208193948332408 7.445159031459209
591 -13.281979790656389 -12.509552909192543 -2.181502850748949
592 2.530137270401782 2.968641746570553 2.020860721490697
593 14.804532984774752 -6.267341584746036 2.217739146537677
594 0.688663566214404 3.828344116148256 -1.995241750687185
595 -0.355581538194728 -2.514319720813973 -0.654335978101576
596 17.058259792109346 -1.479741356129132 -5.982357467766107
597 -3.923574605809213 10.146212333887043 8.271992231335318
598 -0.682721570877741 -5.303591544454342 -10.432340740484550
599 14.734834608135104 -17.455630333107050 -6.023543382956584
600 0.299741970849751 13.410089028845872 -1.769150670446948
601 -0.256974529889855 6.154772928274634 -9.790134800234320
602 -1.620689308369203 -18.163955377839013 13.187297562707992
603 -13.280302623062836 -16.860879262194733 1.394101277616589
604 1.045625188010644 -5.430359422848181 -0.472808138132215
605 14.011160096045193 9.848433289184980 15.280218610222131
606 4.205302268149110 17.540319131526460 -7.520607704344044
607 -8.043307812488820 1.129901185729080 -4.971494477787325
608 -28.609199659940267 21.775294557904470 5.800131093420171
609 3.078655995347581 16.643730780526990 -3.447925015420812
610 2.137407493181883 2.779276459562511 -0.054961500116566
611 5.698626689131564 0.149157140155938 -0.304825839866115
612 10.141589477876144 14.061846070940697 2.016492248412001
613 0.965918905180969 0.973015029954195 -2.775209948533905
614 -15.284078047775254 3.076532883873626 -1.537963444284681
615 7.200865754843529 -0.346955820474539 3.412223465536573
616 -0.444423829138072 -5.752740264272877 -1.387749729264154
617 10.208664869380670 -27.884379752280225 1.885380016440379
618 -4.941260350097009 3.896926814219988 -1.967019079810462
619 -5.988062474274434 -0.925432074868035 -2.327162725782699
620 -10.379429388021553 -0.922006012660481 5.930081057804172
621 -10.672070724296778 -1.120296863133247 9.029083509269183
622 -5.777315163381435 -3.790085296771617 -2.158576598578898
623 -5.012689121686028 1.159375194130476 5.183995865987613
624 -8.583964669610335 -41.294352367289560 -8.455668120836729
625 -2.938571391176571 -1.928055578489518 -7.487592906626119
626 0.464725884631055 -4.101553168125139 -4.827797756102321
627 -2.176227143871712 -3.234169839752300 -11.558264799549758
628 -5.436719294928802 2.244730737017388 2.800766853875789
629 3.371187861726211 16.630291361909563 -2.677451583518847
630 -6.444929002180032 4.569940463781110 0.354238564652208
631 5.066281601378814 -5.177684814819527 6.946867692541324
632 -18.432971218928847 3.148989789761642 -7.754960320540768
633 13.005813648614447 -19.622075186938100 15.077535420324983
634 -0.461748037912590 -2.669057470626201 2.642446397314711
635 -0.658093190338540 0.581487784480675 3.930236810270549
636 11.653098625846340 -14.954310821404282 -11.284923413206619
637 1.568507395829158 0.137855564181109 1.436044429824039
638 4.101979985216874 1.630025001880094 1.854818274871223
639 15.989867721300110 42.021687281496950 22.773233626072968
640 -0.061530030526066 0.021399587627867 -4.594265828981701
641 -6.145063187187854 1.212145175186813 -15.747961687401862
642 7.343379696857855 -5.101729606514503 7.925770824810555
643 2.334931872439623 4.302914781628242 8.448484742179747
644 -12.503553235713722 4.238118520760966 -12.649617726778065
645 -3.352741241911599 1.054416935810012 -3.736107305198641
646 0.295599234187802 1.357055808396166 1.739330145018668
647 -8.489696255196005 14.791104854428007 0.947104639849028
648 -4.099093450098484 -33.274496417661836 -22.148054730901125

