648
Lattice="18.624 0.0 0.0 0.0 18.624 0.0 0.0 0.0 18.624" Properties=species:S:1:pos:R:3:masses:R:1:momenta:R:3:id:I:1:type:I:1 comment="LAMMPS data file atomic style, metal units (velocities converted from real)" pbc="T T T"
O        1.56049043       5.04291419       1.70352270      15.99940000       0.59698088      -0.25558085      -0.65830670        1        1
H        1.42239931       4.10721056       1.85056488       1.00800000       0.06608232      -0.03097538      -0.10960015        2        2
H        0.89342671       5.28597008       1.06150904       1.00800000       0.14404528      -0.02715054      -0.15627070        3        2
O        3.03350342      -8.12809476       2.89607770      15.99940000       0.92868598      -0.92265906      -0.71460765        4        1
H        3.69806463      -8.22117686       3.57866546       1.00800000      -0.04545974       0.10766155       0.07863384        5        2
H        3.52576118      -7.87685863       2.11454405       1.00800000       0.14917420      -0.00440080       0.02946342        6        2
O       14.56551863      -0.94455432       9.82544870      15.99940000       0.98919636      -0.22592328       1.59964189        7        1
H       15.37771462      -0.61112104       9.44414496       1.00800000       0.01393169       0.06238059       0.06485860        8        2
H       14.77573138      -1.09082002      10.74775535       1.00800000       0.04668053       0.23622053       0.14402438        9        2
O        2.75023232       7.01229517      -0.10338307      15.99940000      -0.44553442      -0.12823934       0.24610755       10        1
H        2.52280707       6.66536632       0.75925832       1.00800000      -0.10806806       0.08282379       0.03091529       11        2
H        2.05048230       6.70290215      -0.67858582       1.00800000      -0.09062796       0.11355383       0.02600029       12        2
O        7.11151432       2.75279883      17.34284170      15.99940000       0.21780769      -0.84118941       1.32842275       13        1
H        7.76053743       2.27588298      17.86009605       1.00800000       0.16620536       0.07811330       0.01296008       14        2
H        7.50616497       2.82937447      16.47415362       1.00800000      -0.14279221      -0.06857182       0.01130684       15        2
O       -4.33826893       1.78798474      11.57081997      15.99940000       0.15162093      -0.54856691       0.10651206       16        1
H       -4.97113631       1.09092978      11.74352125       1.00800000       0.14097222      -0.11780105       0.15237814       17        2
H       -4.20709067       2.20893310      12.42042395       1.00800000      -0.07120059       0.16888188      -0.08170622       18        2
O       -8.51790354       5.65103954       2.29883839      15.99940000      -0.77122809       0.44415341      -0.38952470       19        1
H       -8.04361463       5.18243379       2.98563534       1.00800000       0.13078060       0.27084994       0.01723010       20        2
H       -8.30499143       5.17785713       1.49447615       1.00800000       0.01389062      -0.05143316       0.03869102       21        2
O        1.48871531       3.91051978       6.12379634      15.99940000      -0.55692606      -1.63723793      -0.15965869       22        1
H        1.28480223       4.83504765       6.26486470       1.00800000      -0.12083993      -0.12131192      -0.01418107       23        2
H        2.18070827       3.91558536       5.46246997       1.00800000      -0.01722953      -0.04078945       0.00912014       24        2
O        1.30236747       6.40984564       6.85239726      15.99940000       0.12869051      -0.27892763       0.10490118       25        1
H        2.08376035       6.76059557       6.42504247       1.00800000      -0.01928896       0.04945683       0.01153827       26        2
H        1.52743209       6.38673498       7.78247481       1.00800000      -0.05769998       0.16279085       0.02700847       27        2
O        2.40086293       9.80836425       7.84917817      15.99940000      -0.11071167      -1.16585971      -1.08250277       28        1
H        1.96932601      10.22094481       8.59736657       1.00800000       0.18254847       0.09140327      -0.04989340       29        2
H        2.84952775       9.04846466       8.21996734       1.00800000      -0.05648042      -0.09037367      -0.04285456       30        2
O       -0.75498368      23.33047878      21.88802625      15.99940000       0.86592216       0.59700576      -0.37566259       31        1
H       -0.10604766      23.83158436      21.39405568       1.00800000       0.21925202      -0.05320095       0.10070526       32        2
H       -1.03647104      23.92340338      22.58475976       1.00800000      -0.07508432       0.11551332      -0.14210237       33        2
O        0.31009553       8.41729764      16.51745190      15.99940000       0.10919710       0.14997064      -0.22272031       34        1
H        0.70371982       7.59226756      16.23352050       1.00800000      -0.10427951      -0.06861573       0.05914514       35        2
H       -0.02298825       8.23446378      17.39600681       1.00800000      -0.10367133       0.10442061      -0.03626564       36        2
O       -2.42965227       6.55931933      -2.25026059      15.99940000      -0.35671862      -0.86139928      -0.82035123       37        1
H       -3.01415059       5.80691349      -2.34234292       1.00800000      -0.01249789      -0.07065488       0.01919758       38        2
H       -2.97569752       7.31524707      -2.46622335       1.00800000      -0.08511691      -0.06452286       0.07137714       39        2
O        0.42031564      11.69162739       2.54486614      15.99940000      -0.38855296      -0.00672098       0.05100947       40        1
H        0.45417907      12.18142778       1.72317223       1.00800000       0.04154572      -0.15325691      -0.08510850       41        2
H        1.33655583      11.50962182       2.75369783       1.00800000      -0.04050675       0.04998936       0.11780684       42        2
O       -0.97456273       9.39248275       7.04322615      15.99940000      -0.36777615      -0.05212529      -0.35543163       43        1
H       -0.26464049       9.95882160       6.74073179       1.00800000       0.00442575       0.04427338       0.13115618       44        2
H       -1.11043733       9.64497554       7.95647160       1.00800000      -0.14182988      -0.11040996      -0.01031530       45        2
O       -2.61075359       8.10821848      12.42046279      15.99940000      -0.48901596       0.04567813       0.31686225       46        1
H       -3.23337574       7.48368544      12.04826334       1.00800000      -0.06867354      -0.08954895       0.23870292       47        2
H       -1.91538323       7.56325213      12.78884388       1.00800000       0.05303556       0.09767803       0.00199334       48        2
O        1.26117240       5.97608904      16.53823043      15.99940000       0.11658941       1.51223871       0.42708406       49        1
H        0.45696639       5.52127783      16.78849374       1.00800000       0.07233043      -0.04673841      -0.02199226       50        2
H        1.64604314       5.42544621      15.85639526       1.00800000       0.22984637       0.07886563       0.16560907       51        2
O       -3.19834873      11.87221638      19.88563384      15.99940000      -0.27293563      -0.47167646       0.86308713       52        1
H       -3.86269081      11.42686336      19.35976115       1.00800000      -0.02642154       0.22638320      -0.15101875       53        2
H       -2.48461742      12.04748398      19.27236288       1.00800000       0.08301251       0.03184867       0.18844705       54        2
O       -5.74604081      10.15025656      -5.02612041      15.99940000      -0.68157849       0.11619166      -0.00806231       55        1
H       -4.85877157      10.43984556      -4.81369825       1.00800000      -0.06833629      -0.04248432       0.17327214       56        2
H       -6.31239098      10.68212928      -4.46702229       1.00800000      -0.11260447      -0.08866482       0.02000386       57        2
O       -5.61692371      18.48390491       5.39542956      15.99940000      -1.16708002      -1.61389899      -0.27419908       58        1
H       -6.38582602      18.91904394       5.02708848       1.00800000       0.00493332       0.11305276       0.07216078       59        2
H       -5.29527839      19.08960270       6.06319190       1.00800000       0.08359035      -0.26043825       0.05122829       60        2
O        5.31132654      19.06980924      15.09263016      15.99940000       0.55283146      -0.37314005       0.39417240       61        1
H        5.69508850      18.55106781      15.79964275       1.00800000       0.05651780       0.04462781       0.06298633       62        2
H        5.70793077      19.93576462      15.18780545       1.00800000      -0.15887432       0.05822446       0.08910331       63        2
O        1.11999462      11.34045800      16.77077150      15.99940000      -1.62286321      -0.21763235       1.40122678       64        1
H        0.64130409      10.51165912      16.78418755       1.00800000      -0.07737248      -0.02803851       0.08934103       65        2
H        2.02935053      11.08977343      16.60810238       1.00800000      -0.11942917       0.02502853      -0.06711834       66        2
O       -1.11308883       6.23530207      24.10150953      15.99940000      -0.08721308      -0.34703581      -0.50367590       67        1
H       -0.99370492       7.13672871      23.80249571       1.00800000      -0.10014918       0.01129580       0.03027022       68        2
H       -0.33488801       6.05199546      24.62784969       1.00800000      -0.03909321       0.06071884       0.04654282       69        2
O       -1.95153424      10.50790783      21.83068577      15.99940000       0.33035319       0.51198990       0.19870130       70        1
H       -2.62389171      10.88869338      21.26573507       1.00800000       0.08830240      -0.13965642      -0.18351443       71        2
H       -1.12861622      10.86958140      21.50170340       1.00800000       0.08073752      -0.24629339      -0.14418277       72        2
O        2.70540168      13.47589764       1.73565739      15.99940000       0.05832643      -0.61251598      -0.22036808       73        1
H        3.60042260      13.17857760       1.89927270       1.00800000      -0.05356389      -0.11396776       0.16273832       74        2
H        2.35286844      13.66573832       2.60508964       1.00800000      -0.11170768       0.10708600      -0.09243944       75        2
O       -3.04848110       9.61475683      10.08155864      15.99940000      -0.32105182       0.47595517       0.33741878       76        1
H       -3.24570650       8.75885827       9.70107032       1.00800000       0.05406190       0.09449869      -0.16265908       77        2
H       -2.59121064       9.41468685      10.89832506       1.00800000       0.04507976      -0.10531424      -0.04829303       78        2
O        1.06826019      16.71149686      10.10528649      15.99940000       0.13882805       0.42491036      -1.18613238       79        1
H        0.31718639      16.54261999      10.67414575       1.00800000      -0.04315678       0.00550848      -0.14966913       80        2
H        1.07605838      15.97554617       9.49328360       1.00800000       0.16666791      -0.03940025       0.00687094       81        2
O        6.31427696       8.92607331      17.19473387      15.99940000      -0.07583548      -0.13059398      -0.11620859       82        1
H        5.81977082       9.10711023      17.99405915       1.00800000       0.03185650       0.21805110      -0.03610477       83        2
H        6.28576753       7.97347223      17.10546136       1.00800000      -0.35514064      -0.00210622       0.04225713       84        2
O       -0.91108560      12.57918104      18.20898644      15.99940000      -0.50168657       0.24236704      -0.80681462       85        1
H       -0.21663013      12.10829280      17.74830483       1.00800000      -0.06694059       0.10362491      -0.19435120       86        2
H       -0.64695296      13.49822997      18.16638579       1.00800000      -0.05059837       0.02655675       0.07813128       87        2
O       -3.38464564      18.64794784      17.84228897      15.99940000      -0.55114796      -0.31060234      -0.12708952       88        1
H       -2.76976853      18.21277605      18.43286749       1.00800000       0.12759693       0.23314123       0.00924652       89        2
H       -4.23768051      18.54203917      18.26341426       1.00800000       0.02931106      -0.16675014       0.08465415       90        2
O        3.05367885      17.42161791       1.94421920      15.99940000      -1.09865787      -0.01306286      -0.32047579       91        1
H        3.88947170      17.76555495       1.62895837       1.00800000      -0.07969763      -0.07186474      -0.12559750       92        2
H        2.94380227      17.81445819       2.81014957       1.00800000      -0.01652673       0.15461954      -0.08431722       93        2
O        7.47334385      12.39114450       6.86989361      15.99940000      -0.72689179       0.10918062       0.79029768       94        1
H        8.23657769      11.82077923       6.96148868       1.00800000      -0.10609289      -0.09179454      -0.06258798       95        2
H        7.74392418      13.21955432       7.26581700       1.00800000       0.10291737      -0.04336721       0.05333275       96        2
O        5.36240155      18.53309492       7.45223402      15.99940000      -1.38424617      -0.76112329      -0.70463484       97        1
H        6.09866010      18.81277129       6.90823393       1.00800000      -0.07423712      -0.25393830      -0.13262480       98        2
H        5.76364977      18.26048941       8.27741140       1.00800000      -0.09439847       0.13863685       0.02084093       99        2
O        0.86061707      15.72716353       3.01439346      15.99940000       0.30519935       0.17003333       0.37982757      100        1
H        1.66169254      16.03497482       2.59040931       1.00800000       0.07333123       0.09715992       0.18898936      101        2
H        0.18475601      16.33953839       2.72380611       1.00800000       0.07793779       0.13593141       0.15174630      102        2
O        3.02387345      13.09564028       5.27757309      15.99940000       0.64859406      -0.06072629      -0.10665881      103        1
H        3.59962729      13.79318408       4.96424741       1.00800000       0.09578009       0.01259969       0.13145928      104        2
H        2.59442445      13.46695999       6.04824022       1.00800000       0.01131433      -0.09492519       0.02071957      105        2
O        0.45327060      25.98096704      11.52964397      15.99940000       0.50534128       0.53260026      -0.35968410      106        1
H        0.01343510      26.82300940      11.41242415       1.00800000      -0.26476308      -0.14006659      -0.15741926      107        2
H        0.49121788      25.86005877      12.47841847       1.00800000      -0.03087385       0.14297299      -0.00616512      108        2
O        6.05100140      -3.54902288      -0.92818193      15.99940000       0.23671487       0.04865551      -0.46170938      109        1
H        5.57069283      -4.25126147      -0.48955187       1.00800000       0.06029803       0.05991002       0.11177294      110        2
H        5.76198571      -3.59352647      -1.83962094       1.00800000      -0.05780485      -0.13375133       0.00060751      111        2
O        4.07246290      -2.84792467       9.03318439      15.99940000      -0.38390559      -0.89063468      -0.80676801      112        1
H        4.37566369      -2.93140654       8.12912015       1.00800000       0.06005939      -0.12505450      -0.01627909      113        2
H        4.45583880      -2.02626030       9.33997830       1.00800000       0.03311999      -0.08539613      -0.04409696      114        2
O       -3.27181537       8.37730970       6.33676373      15.99940000       0.79837924       0.27394033       0.17279339      115        1
H       -3.24908373       7.62813432       6.93212184       1.00800000      -0.07885275      -0.00268626      -0.00931328      116        2
H       -2.38802819       8.74273062       6.37700626       1.00800000       0.04809516       0.00191652       0.19691945      117        2
O        5.48823665       5.28797172      12.61453818      15.99940000      -0.34285397      -0.02218564       0.74032053      118        1
H        6.00252041       4.94245155      11.88490759       1.00800000       0.04987105      -0.00624780       0.09926211      119        2
H        5.72772408       6.21362103      12.65983427       1.00800000       0.02831048      -0.01739704       0.10992752      120        2
O        0.72864295      -5.11660533      11.72246021      15.99940000       0.39502505       0.18792932      -0.37609500      121        1
H        0.17589949      -4.33705843      11.77735848       1.00800000      -0.04744484      -0.04468529       0.05248370      122        2
H        0.11408269      -5.83729561      11.58406513       1.00800000       0.07709095      -0.05469529       0.09032325      123        2
O       -2.58775847       1.77723158      20.34049233      15.99940000       0.21883034      -0.70568705       1.29093186      124        1
H       -1.84934348       1.23689163      20.05940865       1.00800000      -0.04383605      -0.13633462       0.10631307      125        2
H       -2.73046432       2.38485842      19.61478132       1.00800000      -0.00064269      -0.14403003       0.00065024      126        2
O       10.15727934       8.72627152       4.01770271      15.99940000       0.60805823      -0.48961641       0.44780454      127        1
H       10.51181710       7.91603023       3.65158249       1.00800000      -0.04877452      -0.00407364      -0.11530255      128        2
H        9.50530837       8.43621660       4.65569477       1.00800000      -0.10950785      -0.07131733      -0.14136062      129        2
O        3.36582588       7.94476166      12.79373428      15.99940000       0.31676188       0.87654683      -0.00230082      130        1
H        4.25670792       8.22491784      12.58379652       1.00800000      -0.09731269       0.35260540      -0.10168524      131        2
H        3.03146952       7.57553397      11.97635520       1.00800000       0.09628999      -0.17678080       0.07349920      132        2
O       -0.11725438       8.65733942       4.17036077      15.99940000      -0.20205625       1.18652538       0.91628859      133        1
H       -0.88416485       9.13766641       3.85832547       1.00800000       0.05453172       0.09453036      -0.07727997      134        2
H        0.50431885       9.33842125       4.42727686       1.00800000       0.07134503       0.06015962      -0.10612234      135        2
O       10.38845368       6.67267513      16.11974142      15.99940000      -0.25257431       0.49120105       0.67273213      136        1
H       10.60789727       7.25504526      15.39247185       1.00800000       0.22003422       0.05818186       0.13536747      137        2
H        9.52369562       6.32728066      15.89809408       1.00800000       0.03255433       0.08086587      -0.22503608      138        2
O        6.00705126       2.62294671      19.79582744      15.99940000       1.21301123      -0.02897195       0.11298587      139        1
H        5.34931317       3.30428242      19.93508951       1.00800000      -0.01772577      -0.07235537      -0.09117281      140        2
H        6.35301617       2.79862653      18.92079790       1.00800000       0.05309183      -0.07956354      -0.01771358      141        2
O        1.40432072       4.18144086      14.34730227      15.99940000      -0.04932726      -0.46912596       0.79183108      142        1
H        1.16640662       3.44437718      13.78483773       1.00800000      -0.01402520      -0.12661978       0.18164416      143        2
H        2.34932252       4.27798347      14.22947749       1.00800000      -0.05543351       0.14870107      -0.22391888      144        2
O        5.65390126       6.16714790      -2.01381559      15.99940000      -0.33481192      -0.17258704       0.15401058      145        1
H        5.41720802       5.28253694      -2.29251285       1.00800000       0.01147242      -0.00796821      -0.02720587      146        2
H        4.94407550       6.71979224      -2.34087018       1.00800000      -0.02761004      -0.01962492       0.00905481      147        2
O        1.58133359      13.74548268       7.70433014      15.99940000      -0.30183548       0.21565947      -0.36291291      148        1
H        0.84340644      13.13614908       7.68412751       1.00800000      -0.08290353       0.08410039       0.19362080      149        2
H        2.15230213      13.40812686       8.39456071       1.00800000       0.06402878       0.06100638      -0.06834994      150        2
O        6.71290128      11.85169339       4.31696921      15.99940000       0.72379235       0.53200727      -0.30179641      151        1
H        7.29388496      11.92681904       5.07396712       1.00800000       0.16987987       0.02778389      -0.11389512      152        2
H        5.87624526      12.20382073       4.62068728       1.00800000       0.14326163       0.18985395       0.06864806      153        2
O       -0.88503284      16.19183545      15.62114300      15.99940000       0.53970482      -0.42523704      -0.01016712      154        1
H       -1.60833109      15.83763951      15.10382585       1.00800000       0.17119519      -0.22562992      -0.05644783      155        2
H       -0.96447985      15.76020818      16.47179995       1.00800000      -0.19513584       0.30461743       0.14654805      156        2
O        1.31316151       2.20755529      20.54737849      15.99940000       0.38411169      -0.19398592      -0.18896127      157        1
H        0.66165357       1.79147665      19.98288908       1.00800000       0.03538030       0.09743167      -0.10566481      158        2
H        0.98969962       2.06033752      21.43615928       1.00800000       0.03606142      -0.23407558      -0.04449467      159        2
O       15.67528765       7.73904566      20.01318643      15.99940000      -0.16678953       0.90128213      -0.22235459      160        1
H       15.06952496       8.27105841      19.49719637       1.00800000       0.10452074       0.10972608      -0.09436605      161        2
H       15.28574119       7.71130109      20.88709458       1.00800000      -0.15704829       0.04538116      -0.07952435      162        2
O        7.38711673       6.97149790       4.63428336      15.99940000       0.03806830       0.21845211      -0.54325700      163        1
H        6.72458591       7.57526263       4.29849532       1.00800000       0.02147071       0.04979459      -0.00712238      164        2
H        7.43396907       6.27701147       3.97722462       1.00800000       0.03676527       0.08201718      -0.10400412      165        2
O        1.13254695      10.87075866       5.59710149      15.99940000      -0.07590815       1.04560413      -0.49079967      166        1
H        1.64442422      11.65179679       5.38688042       1.00800000       0.02306082       0.02171079      -0.12687990      167        2
H        1.73024011      10.32143993       6.10429343       1.00800000       0.01231992       0.05663022      -0.06101627      168        2
O       11.01699821      11.46385054       3.47144465      15.99940000       0.46845479      -0.36345108       0.80536286      169        1
H       11.04500629      10.55697155       3.77643424       1.00800000       0.06348982       0.00841345       0.14107138      170        2
H       11.31066157      11.42018626       2.56145170       1.00800000       0.30850976      -0.06470742       0.14265629      171        2
O        3.07192017       4.51005098      11.51636795      15.99940000      -0.65510249      -0.64174897      -0.83650445      172        1
H        3.17704311       3.56468623      11.62344963       1.00800000      -0.01777902      -0.02847314       0.02954494      173        2
H        3.84135117       4.88694577      11.94316773       1.00800000      -0.10221617       0.02017432       0.00366221      174        2
O        6.28245838       7.91933765      12.76365133      15.99940000       1.06391876       0.48533616       0.04565827      175        1
H        7.17948568       7.58598606      12.74241045       1.00800000       0.03171833      -0.05698504      -0.10794587      176        2
H        6.22573615       8.50396876      12.00785933       1.00800000       0.02218717       0.01490140      -0.00579785      177        2
O        7.65874191       4.71280040      21.59049225      15.99940000      -0.76338729       0.40726547      -1.21829409      178        1
H        7.10788484       4.61960646      20.81325121       1.00800000      -0.04398224      -0.14635300      -0.05910519      179        2
H        8.53042291       4.90552153      21.24514639       1.00800000      -0.02986713      -0.12872345      -0.11722462      180        2
O        2.45513827       7.75315134       3.12681196      15.99940000       0.03993081      -0.80735984       0.42524721      181        1
H        1.58556886       7.56498935       3.47990690       1.00800000      -0.07391109      -0.06773386      -0.17084444      182        2
H        2.42343675       8.68067162       2.89243301       1.00800000       0.03375248      -0.05443493       0.00857269      183        2
O        7.71454285      15.98883238       9.84721037      15.99940000      -0.11516968      -0.28662082       0.33144520      184        1
H        7.35518725      15.64203749       9.03061514       1.00800000       0.36346221      -0.00949811      -0.14586357      185        2
H        7.12026567      16.69943963      10.08825683       1.00800000      -0.18163779      -0.09553571      -0.18093705      186        2
O        5.98559969      17.90729479      10.35999300      15.99940000       1.39498661      -0.29179942      -0.02046960      187        1
H        6.02392379      17.75325393      11.30393923       1.00800000       0.05332634       0.08229689       0.01657528      188        2
H        5.11312047      18.27196156      10.21156809       1.00800000       0.08865278      -0.04588980      -0.07396851      189        2
O        7.00929121      14.85388849      12.55195777      15.99940000       0.09741838       1.35336837      -0.42842901      190        1
H        7.63028854      15.09429356      11.86435371       1.00800000      -0.08408726       0.25355011      -0.04973376      191        2
H        6.61109956      15.68320197      12.81637005       1.00800000      -0.28613248      -0.03618167      -0.08651428      192        2
O       -2.20055346      16.93777725      19.82914823      15.99940000      -0.44738962       0.19562602       0.05679831      193        1
H       -2.91497555      16.36469035      20.10736524       1.00800000       0.03352129      -0.04663235       0.04077398      194        2
H       -1.96296011      17.42532679      20.61786732       1.00800000       0.04480605      -0.04546234       0.01725763      195        2
O        5.18414625      18.61320022      19.49164451      15.99940000       0.84454224      -0.82107206       0.30818925      196        1
H        5.94936977      18.40649239      18.95504699       1.00800000       0.08747981       0.14818931      -0.00849715      197        2
H        5.27915560      19.54328544      19.69694282       1.00800000      -0.16676594      -0.03413552       0.04111590      198        2
O        3.37951460      13.27300668       9.88434942      15.99940000       0.26876328      -0.08352251      -0.51243022      199        1
H        2.91813161      13.32656511      10.72130112       1.00800000       0.01048955      -0.39334286      -0.01081706      200        2
H        3.57835733      14.18237120       9.66130556       1.00800000      -0.28453439       0.12315898       0.22188137      201        2
O       12.57925264      21.69103329       9.41754990      15.99940000       1.34096247      -0.15593712       0.58162453      202        1
H       11.75334747      21.20961166       9.36911292       1.00800000      -0.04676509       0.21165237       0.06864408      203        2
H       13.10427584      21.20361552      10.05237811       1.00800000      -0.04010513      -0.12280177       0.05304822      204        2
O        8.88822484      22.41695444      11.99836780      15.99940000      -0.39745533       0.75477767       0.36477411      205        1
H        8.73009919      22.21277596      11.07666331       1.00800000      -0.11635236      -0.03892437       0.05770374      206        2
H        9.83661955      22.53109845      12.05960709       1.00800000      -0.00045437      -0.11730241      -0.04723255      207        2
O        0.80787774      15.76195185      13.47509233      15.99940000      -0.32368638       0.72631818       0.69236934      208        1
H        0.16158008      15.85058099      14.17557572       1.00800000       0.06966283       0.21298708       0.10519559      209        2
H        1.26357862      14.94334385      13.67117987       1.00800000      -0.01761307       0.07568428       0.16186388      210        2
O        2.55997536      19.49641771      15.00618027      15.99940000       0.39622678       0.45823276      -0.47939700      211        1
H        2.67818576      20.05848547      15.77190754       1.00800000       0.05579322      -0.01249220      -0.00457484      212        2
H        3.42458644      19.11567350      14.85218649       1.00800000      -0.03047132      -0.12660739       0.04234112      213        2
O        9.94507701      19.31108974      18.81371600      15.99940000      -0.49636937       0.07644580      -0.55151972      214        1
H        9.84646319      18.57403611      18.21100629       1.00800000       0.07655334      -0.08442137       0.05703929      215        2
H       10.81532463      19.66158791      18.62384243       1.00800000      -0.03393933       0.03335114       0.00570425      216        2
O        3.67621142       7.90128965      -3.18001807      15.99940000       0.32133577      -0.18362538      -0.15698550      217        1
H        2.80538981       7.76214703      -2.80780731       1.00800000      -0.01339439      -0.09794015      -0.12080838      218        2
H        3.57632486       7.69269040      -4.10885697       1.00800000       0.08966782       0.26291974      -0.07877980      219        2
O       -0.27544027       0.75254119       0.11950902      15.99940000       0.58422581      -0.39103796       0.02744272      220        1
H       -0.20242439       0.98256390      -0.80676865       1.00800000       0.25393369       0.05211636       0.03773439      221        2
H        0.18562932      -0.08276224       0.19642080       1.00800000      -0.05139695      -0.07114783       0.02511832      222        2
O        8.72118230       3.58366144       9.16299675      15.99940000       0.63875410       0.12322969      -0.82534053      223        1
H        8.42847403       3.96223839       8.33400146       1.00800000       0.27103416      -0.01821717      -0.14523446      224        2
H        9.46992495       3.03650463       8.92585582       1.00800000       0.02249717      -0.10590706       0.15448079      225        2
O        7.97479744       5.92377596      15.15069243      15.99940000       0.21454008      -0.44113156       0.71479348      226        1
H        8.25006591       6.18432015      14.27172967       1.00800000      -0.11019280      -0.22611480      -0.05218829      227        2
H        7.11279441       6.32503523      15.26102632       1.00800000      -0.02816313      -0.11217635       0.02577593      228        2
O        4.47701253       4.74952625      20.48967511      15.99940000       0.56595637      -0.36532461      -0.70725949      229        1
H        3.58929058       4.96883990      20.20668528       1.00800000      -0.03459960      -0.20686831       0.03315748      230        2
H        5.03861207       5.36159836      20.01406428       1.00800000      -0.13594055       0.12054834      -0.06246416      231        2
O        7.51457896       5.46460642      25.75952247      15.99940000      -0.26657530       0.11396232       0.34686631      232        1
H        7.36524757       6.09818879      25.05773458       1.00800000      -0.05203242      -0.07099497      -0.04113669      233        2
H        6.81315264       5.63349225      26.38857787       1.00800000      -0.07711375      -0.02706995      -0.03623866      234        2
O       11.84436799      -1.37008331      -9.27568356      15.99940000       0.25558460      -1.19795634       0.11183352      235        1
H       11.70323761      -1.95804689      -8.53365062       1.00800000       0.04594414      -0.10519086      -0.01078856      236        2
H       12.77894188      -1.16542933      -9.24534781       1.00800000       0.00898948      -0.04248306       0.00317522      237        2
O       12.38835649       6.83675247       6.20211441      15.99940000      -0.51178298       0.87098749       0.15317956      238        1
H       13.19659588       6.54657851       5.77929113       1.00800000      -0.17652651      -0.19294465      -0.09538931      239        2
H       12.43057195       7.79248819       6.17020107       1.00800000       0.13515405       0.03949373      -0.22517344      240        2
O        4.77963438       9.01276014       0.82039125      15.99940000       0.43387679       0.83689849       0.47163274      241        1
H        4.84372421       8.93589604       1.77234534       1.00800000       0.00583313      -0.05803844       0.02212992      242        2
H        4.09338718       8.39214386       0.57517225       1.00800000       0.08192185       0.03001343      -0.06560062      243        2
O       11.03860672      11.06895520      15.19639710      15.99940000       0.23296675      -0.12082530      -0.12062508      244        1
H       10.69294066      11.23879836      16.07269669       1.00800000      -0.16445456      -0.20041337      -0.04110295      245        2
H       10.44936950      11.54332935      14.60988127       1.00800000       0.05821963       0.01479513      -0.03321837      246        2
O        6.75045837      -0.73852079      17.19936457      15.99940000      -0.53247505       0.20477817       0.17966833      247        1
H        6.63227498      -1.56049775      17.67540837       1.00800000       0.23266747       0.06986401       0.17679352      248        2
H        7.42728876      -0.93200700      16.55075412       1.00800000       0.01528439       0.09609987       0.03745914      249        2
O        1.29997381       0.18872522      25.09222249      15.99940000      -0.09561636       0.11705173      -0.90334781      250        1
H        0.74204261      -0.58036475      24.97627179       1.00800000       0.21155454      -0.20180093       0.28472778      251        2
H        0.77079652       0.79276583      25.61312395       1.00800000       0.01582950      -0.11557502       0.10785416      252        2
O       18.13331551      15.22946730      -0.22982602      15.99940000      -1.32386134      -0.04117951      -1.17846280      253        1
H       17.39873917      15.75812889       0.08185798       1.00800000       0.09826753       0.19287739       0.02185079      254        2
H       18.89867219      15.79377431      -0.12019334       1.00800000       0.08071722      -0.20545358      -0.17690595      255        2
O       12.62601493      15.52761971      11.60605284      15.99940000       0.61234831       0.21998869      -0.72480974      256        1
H       12.91982696      14.63012118      11.44983649       1.00800000      -0.02508703       0.00148624      -0.09465809      257        2
H       13.43421886      16.03157630      11.70127160       1.00800000       0.07651640      -0.00385330      -0.27225636      258        2
O        1.70007380      10.28626475      12.80857758      15.99940000       0.22167917       0.00201646      -0.34833487      259        1
H        2.24893296       9.51808281      12.96632091       1.00800000       0.01993023       0.04331641       0.16837368      260        2
H        2.30914699      11.02443261      12.82782994       1.00800000      -0.02829961       0.03341885       0.03921381      261        2
O        0.41964848       3.75376176      10.50353060      15.99940000      -0.03841649       0.16754274       0.87909708      262        1
H        1.18145604       4.24004532      10.81882387       1.00800000       0.03294376       0.01440860      -0.03593047      263        2
H        0.29007759       3.06301076      11.15338227       1.00800000       0.11461341      -0.02587018       0.04025742      264        2
O        8.80271812       3.26734735      14.73252002      15.99940000      -0.01283516       1.20306916      -0.14597543      265        1
H        8.74918022       4.10625949      15.19033205       1.00800000       0.12748068       0.07431002       0.00873029      266        2
H        8.81858626       3.50102016      13.80441600       1.00800000       0.04316734       0.09354649      -0.00396875      267        2
O       13.64551083       4.00371312      17.75550372      15.99940000       0.51629663       0.30353115       0.05709168      268        1
H       14.17162414       4.31597305      18.49166350       1.00800000       0.01308742      -0.05175035       0.04748056      269        2
H       14.28692191       3.68819414      17.11889415       1.00800000       0.04902800       0.07340459      -0.00670941      270        2
O        3.63209008       3.63784222       4.28384602      15.99940000       0.32190074      -0.50491887       0.27748667      271        1
H        4.34262920       3.00179922       4.36639889       1.00800000       0.18924285       0.15850929       0.02922111      272        2
H        3.69912268       3.95709115       3.38394694       1.00800000       0.10783746       0.17334343       0.09699933      273        2
O       -0.84003359      13.52513086       4.33256913      15.99940000       0.41201932      -0.04181988      -0.12046692      274        1
H       -0.30314365      14.26939180       4.06043516       1.00800000       0.13237199      -0.00244093       0.20272884      275        2
H       -0.51293995      12.79062309       3.81320368       1.00800000       0.05069401       0.05533315      -0.07398959      276        2
O        4.35784095      11.05655745      12.54430990      15.99940000      -0.07759836      -0.08492495       0.80781466      277        1
H        4.16556554      11.06832639      11.60669407       1.00800000       0.10090334      -0.07785237       0.02843183      278        2
H        5.23819192      11.42593299      12.61341378       1.00800000      -0.10560432       0.21787939       0.14325072      279        2
O       11.19530109      12.59560640       9.81600133      15.99940000      -0.26801134       0.03180177      -0.71316585      280        1
H       11.51799387      12.72800781       8.92461412       1.00800000      -0.06901580      -0.09657991      -0.07840075      281        2
H       11.78154627      11.93673289      10.18806971       1.00800000       0.02159948       0.06317712       0.00254114      282        2
O        6.75638896       5.27997537      18.82035311      15.99940000      -0.12619586      -0.11809695       0.31727064      283        1
H        6.50849808       5.69028041      17.99184064       1.00800000      -0.13332332      -0.09921802       0.01225210      284        2
H        7.31696592       4.54671258      18.56675625       1.00800000       0.04458279       0.03192702       0.02238004      285        2
O        7.90702197       0.63677455      20.72607813      15.99940000       0.28028060      -1.32030793       1.16192734      286        1
H        7.39101409       1.35041280      20.35099409       1.00800000      -0.11322927      -0.01846542       0.37668256      287        2
H        8.66688876       0.56097548      20.14893963       1.00800000      -0.26449863      -0.09014403      -0.29715475      288        2
O        8.38127077      10.04434096       1.85016643      15.99940000      -0.23715558       0.83372890       0.33163780      289        1
H        8.82724395       9.49773256       2.49712802       1.00800000       0.03527268       0.25653332       0.15822800      290        2
H        8.47085504       9.56369414       1.02725368       1.00800000       0.20397242      -0.04864613       0.10394095      291        2
O       14.51875814      18.67814244      -3.47221912      15.99940000       0.14177600      -0.06514172      -0.61142580      292        1
H       13.64610944      18.37902124      -3.21679273       1.00800000       0.09530196      -0.16096942       0.07323418      293        2
H       15.01618864      18.69313897      -2.65455790       1.00800000       0.14638247      -0.03481754      -0.12142297      294        2
O        7.33512143       9.99265968      14.96581672      15.99940000      -0.79936901       0.42310081       0.73984031      295        1
H        6.99731657       9.43919255      15.66994397       1.00800000       0.01940278      -0.00082173       0.05854223      296        2
H        7.35791194       9.41920049      14.19975116       1.00800000       0.25149535      -0.05464435       0.11614638      297        2
O        7.78488708      19.40291456       6.76386945      15.99940000      -0.40968911       0.05848454       0.33074936      298        1
H        7.93000409      20.23444063       6.31249684       1.00800000       0.06074123       0.02539539       0.08847201      299        2
H        8.63002752      19.19560973       7.16261005       1.00800000      -0.03885696      -0.13256754      -0.02236965      300        2
O        3.66571775      10.61977143      15.16372376      15.99940000       0.22922213      -0.60171037       0.42999042      301        1
H        3.89265997       9.69070451      15.20328352       1.00800000       0.09713320      -0.01901734      -0.00268208      302        2
H        3.87990981      10.88121267      14.26817741       1.00800000      -0.05922911      -0.00309048       0.01954498      303        2
O        2.19037116      13.75797501      15.04933070      15.99940000      -0.02296059      -0.11625008      -1.11219132      304        1
H        2.05297969      14.14541935      15.91376306       1.00800000       0.10364095       0.11738564      -0.10929229      305        2
H        1.90797911      12.84853603      15.14632350       1.00800000      -0.04743304       0.02286118       0.07905220      306        2
O       10.50137349      19.79581664      -9.49540908      15.99940000       0.04473991       0.16580218      -0.11982312      307        1
H       11.03706735      19.04829926      -9.76089446       1.00800000       0.07800468       0.04765576       0.03926426      308        2
H       10.02111384      19.48621345      -8.72747062       1.00800000      -0.01531158      -0.01101360      -0.02752107      309        2
O       11.26069306      23.89716538      -0.37262857      15.99940000       0.91918130       0.16453198      -0.11282759      310        1
H       11.04685186      24.42837406      -1.13965043       1.00800000       0.05598879       0.04574600       0.01796802      311        2
H       12.17910263      23.65703779      -0.49548866       1.00800000       0.15548807       0.30190312       0.15042813      312        2
O        9.13124909      15.03321364       6.56185438      15.99940000      -0.37276904      -0.39595920      -0.00391347      313        1
H        9.88143108      14.49035088       6.80425759       1.00800000      -0.00654135      -0.02567002      -0.05420926      314        2
H        9.24880595      15.20133600       5.62689577       1.00800000      -0.08091506      -0.00991499      -0.00477468      315        2
O        3.99885865      16.72174678       6.20245082      15.99940000       0.06998315       0.24300980      -0.51174701      316        1
H        3.30581007      17.16103832       5.70956329       1.00800000      -0.13769486       0.02097329       0.17276036      317        2
H        4.48786208      17.43353878       6.61531807       1.00800000      -0.12190697      -0.01036463       0.16155966      318        2
O        5.91408962       8.95595043       3.33714211      15.99940000       0.26351654       0.01289738       1.05756256      319        1
H        6.54676717       9.63030076       3.08975036       1.00800000       0.10263335      -0.00357104       0.27463874      320        2
H        5.53106188       9.27450988       4.15448031       1.00800000      -0.29605469       0.03450084      -0.09316652      321        2
O        5.47531557      14.68798127      15.02257530      15.99940000       0.10860223       0.00145659      -0.58903664      322        1
H        5.72750348      14.57974150      14.10556016       1.00800000       0.16726376      -0.34230032       0.04757841      323        2
H        4.52058199      14.61942454      15.01861029       1.00800000       0.01906043      -0.16237954      -0.15629196      324        2
O        9.40302743       0.27473483      -7.01477547      15.99940000       0.14790424       0.41307718      -0.63646657      325        1
H        9.21176416      -0.64168131      -7.21435555       1.00800000      -0.12123325       0.06319911      -0.08681583      326        2
H        9.18083537       0.37007241      -6.08861454       1.00800000       0.09159768      -0.00766037      -0.01683716      327        2
O       18.21493852       2.25129188       4.19938765      15.99940000      -0.80542416      -0.33466011       0.11445797      328        1
H       17.89322623       3.07359699       3.82986529       1.00800000       0.22978557       0.00888523      -0.17012593      329        2
H       18.91590865       2.51420565       4.79583461       1.00800000       0.00447401      -0.12725468      -0.01078524      330        2
O        7.93780560       2.97437400       5.45185857      15.99940000      -0.43714994       1.17664099       0.06960062      331        1
H        7.82874156       3.79968556       5.92429699       1.00800000      -0.03645410       0.14098344      -0.11438211      332        2
H        7.86705964       3.21541709       4.52821068       1.00800000       0.03398957      -0.04973080      -0.03268069      333        2
O       18.46882056       2.36795101      12.77562975      15.99940000       0.30548540      -0.03098045       0.34853422      334        1
H       18.86461983       1.51436257      12.95158852       1.00800000       0.12027470       0.02861112      -0.05745531      335        2
H       17.60383519       2.31990262      13.18272116       1.00800000       0.03298156      -0.13480413       0.03532943      336        2
O        5.78777830      -1.38190383      13.00490255      15.99940000       0.69286558       0.47082426       0.58016267      337        1
H        5.69754595      -0.69549484      13.66591116       1.00800000       0.17817675      -0.08348788       0.17246407      338        2
H        4.92884513      -1.80349309      12.97791853       1.00800000       0.01706852       0.08053145       0.08887310      339        2
O       13.84233479      -2.65677448       6.74026943      15.99940000      -0.06645675       0.41788558       0.44868683      340        1
H       14.52157122      -2.12120758       6.33034630       1.00800000      -0.09001283      -0.10629405      -0.28840063      341        2
H       13.09145866      -2.06909994       6.82426585       1.00800000       0.05957539       0.09399397       0.12498066      342        2
O        8.69046309       0.54519464      -4.35623960      15.99940000       0.75789193       0.75296150      -0.03255439      343        1
H        9.36813380       0.14694958      -3.80998428       1.00800000      -0.11103673       0.06727626       0.20925241      344        2
H        8.74435800       1.48082704      -4.16150859       1.00800000       0.13027084       0.07882392      -0.17531805      345        2
O        6.59735270      -3.54356080       7.53290437      15.99940000      -0.13673433       0.09559845      -1.03640983      346        1
H        6.08062319      -4.09224828       6.94284959       1.00800000       0.18717070      -0.10447479      -0.13411371      347        2
H        7.39907120      -3.35526149       7.04502789       1.00800000       0.13271864      -0.04623969       0.14704710      348        2
O       17.79664882       6.21496458      13.88271480      15.99940000       1.72696044      -0.71850410       0.28046306      349        1
H       18.43132571       5.52954231      14.09155333       1.00800000      -0.02657531      -0.18284649      -0.02263170      350        2
H       17.16725082       6.18687310      14.60334027       1.00800000       0.11384900       0.04920356       0.02570405      351        2
O        4.61475154      10.04289496       5.59013368      15.99940000       0.03851872       0.66824333      -0.16183772      352        1
H        5.05236571       9.66562199       6.35327910       1.00800000       0.00888594       0.05995174      -0.00505913      353        2
H        4.29630050      10.89351089       5.89224847       1.00800000      -0.14776888      -0.02601474       0.02282758      354        2
O       12.66530312       7.13841727      11.59484728      15.99940000      -0.46399672      -0.61368839       0.32255667      355        1
H       13.34484063       7.06572976      10.92464027       1.00800000      -0.05472132      -0.01897834      -0.00765272      356        2
H       12.03309229       7.75731769      11.22946483       1.00800000      -0.01765941       0.01092845       0.08413353      357        2
O       13.22023054       9.52053241       5.76872159      15.99940000      -0.31265416       0.31873200      -0.85535496      358        1
H       13.98284053       8.96263527       5.92172021       1.00800000       0.01144448       0.01724424      -0.21955625      359        2
H       13.58896454      10.36798740       5.51954885       1.00800000      -0.06851245       0.07594024       0.06398656      360        2
O       10.67597770       8.55487056      10.34795540      15.99940000       1.27700926       0.49620398       0.47910713      361        1
H       11.17076792       9.03133421       9.68132451       1.00800000       0.15899830       0.09528712       0.13410280      362        2
H       10.05192211       8.02573343       9.85116547       1.00800000       0.17646463       0.03678074      -0.09642809      363        2
O        5.26382449      11.27748142       9.57120439      15.99940000      -0.16235798      -0.04686387       0.51174296      364        1
H        5.93804324      11.80401903       9.14176533       1.00800000      -0.15864586      -0.13839104      -0.36663517      365        2
H        4.52980903      11.87981240       9.69224354       1.00800000      -0.04085044      -0.01752210      -0.08167325      366        2
O       13.96139736       4.96489878       8.07378954      15.99940000      -0.33050233      -0.69154266      -0.26981810      367        1
H       13.35842708       5.44920931       7.50978432       1.00800000      -0.00109382      -0.13271112      -0.11463546      368        2
H       13.39486848       4.41237027       8.61229570       1.00800000      -0.04497061       0.10837717       0.11363304      369        2
O        4.31606254       7.39588354       7.94485343      15.99940000      -0.76703957      -0.66979134       0.42909966      370        1
H        3.69767644       6.85035193       8.43088482       1.00800000      -0.13399483      -0.02764247      -0.06570785      371        2
H        4.16719109       7.16810697       7.02714571       1.00800000       0.07779450      -0.03232983       0.00414007      372        2
O       10.78580169       8.36854379      14.08059409      15.99940000       0.04930003       0.42695212       0.19963155      373        1
H       11.48071899       8.43115364      13.42530616       1.00800000      -0.05164281       0.26485666      -0.02281306      374        2
H       10.80072099       9.21471163      14.52781888       1.00800000      -0.26254288       0.03127946       0.01297498      375        2
O       19.61086431      -0.00585703      12.89420042      15.99940000      -0.24877558       0.31195629       0.07501226      376        1
H       19.36012978      -0.92700739      12.96381758       1.00800000       0.17004913      -0.04151784      -0.13834650      377        2
H       20.45000667       0.04965955      13.35135501       1.00800000       0.08378004       0.07278067      -0.18428391      378        2
O       15.97486791      14.79505318      -4.53883228      15.99940000      -0.80032142       0.90971639       0.59227850      379        1
H       16.40727613      14.23535467      -3.89385744       1.00800000      -0.12246859       0.05190960       0.08096488      380        2
H       15.43130850      14.19591291      -5.05050179       1.00800000       0.10590596       0.04254880      -0.11160571      381        2
O        8.58660755      13.04860776       2.15666904      15.99940000      -0.63139636       0.20393029      -0.80231455      382        1
H        7.95971844      12.33711805       2.28714711       1.00800000      -0.04022012       0.00083680      -0.11785006      383        2
H        9.16670650      12.99969270       2.91648783       1.00800000      -0.08450800      -0.01315169      -0.01800284      384        2
O        5.20012907       8.66309713      10.34570703      15.99940000      -0.46950328      -0.84949971      -0.21321736      385        1
H        5.35189757       9.56483479      10.06274701       1.00800000       0.08384562       0.04815783       0.37122868      386        2
H        4.96525357       8.19623697       9.54376820       1.00800000      -0.06746564       0.31345786      -0.21603225      387        2
O        9.02172328      11.75302951      11.04590100      15.99940000      -0.66067587      -0.44314577       0.61886000      388        1
H        9.63896131      12.27061205      10.52883486       1.00800000      -0.02277289      -0.01074206       0.07878612      389        2
H        9.14369737      10.85525579      10.73710258       1.00800000       0.04065294      -0.03219486       0.08404685      390        2
O       14.65723934      11.15348049      16.71949806      15.99940000      -0.15563357      -0.12047275       0.05277940      391        1
H       14.24669445      12.01403943      16.80389525       1.00800000      -0.15634277      -0.08503455       0.08057528      392        2
H       14.98678794      11.13187000      15.82107605       1.00800000      -0.25899537       0.01732851      -0.08885853      393        2
O        6.23136706      17.63621152      22.36593855      15.99940000      -0.75519773       0.32112534       0.60875005      394        1
H        6.82227453      17.97594530      21.69389588       1.00800000      -0.02032910       0.18667464       0.14654150      395        2
H        5.72157233      16.96103562      21.91819026       1.00800000       0.07291329       0.02872699      -0.11145396      396        2
O       14.49678662      16.09712558      -2.01154631      15.99940000       0.99398553       0.31847800       0.04655957      397        1
H       15.09326191      16.84471774      -1.97211234       1.00800000       0.03603509       0.05464399      -0.25282014      398        2
H       13.86682274      16.25539030      -1.30846012       1.00800000       0.24510638       0.07744463       0.15337378      399        2
O        7.04826987      12.38783386      -2.56797019      15.99940000      -0.08001095      -0.18887381       1.08312641      400        1
H        6.97209485      11.56138693      -3.04485038       1.00800000      -0.01532175       0.00116476       0.04726945      401        2
H        6.26225657      12.87771714      -2.80969174       1.00800000       0.01147081       0.01258460       0.06421916      402        2
O        9.88599638      16.16632758      11.65070655      15.99940000       0.36583876      -0.32771689      -1.17365463      403        1
H       10.61720063      15.54861575      11.65281518       1.00800000       0.05823634       0.02110438      -0.08566112      404        2
H        9.38375555      15.94101823      10.86762156       1.00800000       0.11357958       0.05763952      -0.15448065      405        2
O       21.98953203      18.99059533       9.91432636      15.99940000       0.91723357       0.71185774       0.98974149      406        1
H       21.17085767      18.50360717       9.82026709       1.00800000       0.02573808       0.05644431       0.28271776      407        2
H       22.34922303      19.02879561       9.02810115       1.00800000      -0.12042634      -0.06466762      -0.01452157      408        2
O       13.11742809       5.05556375      14.94552432      15.99940000       0.69593797      -0.41579872       0.38263980      409        1
H       12.37797690       4.77880308      15.48667812       1.00800000       0.06707305      -0.06581302       0.03556585      410        2
H       12.88307170       5.93561795      14.65088293       1.00800000       0.09190212       0.04795492       0.20815082      411        2
O       -3.55256290       3.39236515      13.94016567      15.99940000      -0.41062389       0.31034918      -0.23832397      412        1
H       -3.37007168       2.89634646      14.73822257       1.00800000      -0.01732586      -0.03888315      -0.05331678      413        2
H       -4.12104927       4.10720882      14.22661704       1.00800000       0.09942638       0.08551786       0.06953440      414        2
O        5.16483116      14.63065243       4.91362385      15.99940000      -0.82804149      -0.79346004      -0.19639623      415        1
H        5.45864727      14.78491112       4.01578839       1.00800000      -0.13375368      -0.06086905      -0.04087018      416        2
H        5.00071759      15.50534760       5.26605536       1.00800000      -0.00280653      -0.04479239      -0.00216584      417        2
O        4.46889631      21.26760730       7.36974132      15.99940000      -0.40929355       0.64467022      -0.24790790      418        1
H        5.05133484      20.54619504       7.60756780       1.00800000       0.10094093       0.15012087       0.00702199      419        2
H        4.45578931      21.25993157       6.41266187       1.00800000      -0.13197491      -0.07765531      -0.01317132      420        2
O        8.62922260      16.54756577      15.45284968      15.99940000      -0.39170070      -0.88288107       0.22581902      421        1
H        8.68984460      15.60630439      15.28980422       1.00800000      -0.00597763      -0.04196482      -0.05752812      422        2
H        8.40185341      16.92422661      14.60275458       1.00800000      -0.05554069       0.00226264       0.04814530      423        2
O       10.62701485      15.24901319       3.73005300      15.99940000       0.53630257       1.05953871       0.77532301      424        1
H       11.53044037      14.94897798       3.83021829       1.00800000      -0.00350559      -0.02757308       0.10234846      425        2
H       10.69891908      16.19847809       3.63218580       1.00800000       0.13042480       0.07132507       0.16406188      426        2
O        8.79792829      13.96606155      14.47513808      15.99940000       0.47339679       0.79166740       0.47953316      427        1
H        8.13033007      14.11499631      13.80553871       1.00800000       0.24550306       0.06159691      -0.18214686      428        2
H        8.48947031      13.19724937      14.95473539       1.00800000      -0.20802677       0.14061776       0.02205126      429        2
O        8.79668950      14.38610270      18.40708136      15.99940000      -0.62004031       0.17492748      -0.60298689      430        1
H        7.91150298      14.69540121      18.21469732       1.00800000      -0.03873314       0.02919481      -0.01038641      431        2
H        8.69177498      13.81774886      19.17010179       1.00800000      -0.03682199      -0.04146432      -0.07660131      432        2
O       10.38246892      -1.90064520      -1.10843842      15.99940000      -0.53191332      -0.53713450       0.66238515      433        1
H        9.85436033      -2.03032320      -1.89616708       1.00800000       0.17298768      -0.02430843      -0.09831979      434        2
H       10.10206643      -2.59673182      -0.51424188       1.00800000      -0.21580535      -0.01829173      -0.02617205      435        2
O       18.92004155       2.44161704       7.89922928      15.99940000      -0.91962909       0.57969237       0.42629141      436        1
H       19.08443528       2.84614741       8.75102812       1.00800000       0.19035044      -0.07348742       0.03140091      437        2
H       19.36787874       3.01039244       7.27299614       1.00800000       0.13170029      -0.12693638       0.01421016      438        2
O       15.44811283      -8.12905458      13.90547171      15.99940000       0.12964144       0.76258252      -0.14108497      439        1
H       15.28931949      -8.94749647      13.43518555       1.00800000      -0.08415616      -0.04212810       0.17888152      440        2
H       16.39862090      -8.09463452      14.01308756       1.00800000       0.03294447       0.08998994      -0.24011809      441        2
O       14.17958280       1.97035740       7.05737650      15.99940000      -1.55889860      -1.07694895      -0.39115319      442        1
H       13.99296377       2.82628095       7.44312251       1.00800000       0.06765568       0.05029011      -0.20598034      443        2
H       14.90451638       1.62518003       7.57848691       1.00800000      -0.00812325       0.00435150      -0.10218616      444        2
O       15.95335494       2.40110178      16.57841185      15.99940000       0.56835504      -0.54543679      -0.77570029      445        1
H       15.68108312       1.61584276      17.05324659       1.00800000       0.00526622       0.05640864       0.08375825      446        2
H       16.85607913       2.22165958      16.31550313       1.00800000       0.10779690      -0.01762508       0.18628027      447        2
O       11.85421126      -0.99783366      15.25758092      15.99940000      -0.25446690       0.75271645       0.51192544      448        1
H       11.53708503      -1.02233731      16.16038894       1.00800000       0.02237890      -0.04574761       0.04318061      449        2
H       11.96115296      -1.91778138      15.01573122       1.00800000       0.17183403       0.07690980       0.00260977      450        2
O       16.06572409       5.37373509      -6.96305564      15.99940000       0.38788163       1.06299628      -0.21344086      451        1
H       15.78511329       4.53326420      -6.60098089       1.00800000       0.09393438       0.12620300       0.17764408      452        2
H       17.02034693       5.31309794      -6.99841149       1.00800000       0.01115217       0.01808486      -0.29168061      453        2
O       21.29606525       0.24918391       4.11090097      15.99940000      -0.18771326       0.66361948      -0.99096618      454        1
H       20.74293907       0.46126860       4.86276801       1.00800000      -0.06590795      -0.21228309      -0.03079127      455        2
H       21.83576364       1.02921039       3.98238655       1.00800000      -0.08376756       0.12938888       0.16780275      456        2
O        5.65631174       1.77235543       4.11488811      15.99940000      -0.17304769      -0.77362850      -0.07474145      457        1
H        6.35795101       2.10896125       3.55754535       1.00800000      -0.05055274      -0.05996286      -0.06139373      458        2
H        5.80853964       0.82792827       4.14830504       1.00800000      -0.07072739      -0.06120462      -0.08281768      459        2
O       10.26696401      -1.05591813       7.01067009      15.99940000      -0.18698478       0.94208482      -1.01128195      460        1
H        9.76098442      -1.83293412       6.77305114       1.00800000       0.01106076      -0.01958092       0.14665777      461        2
H       10.81423902      -1.34049160       7.74261288       1.00800000       0.01631991       0.26619726      -0.00457768      462        2
O       17.28116690      -5.65229922      15.60566047      15.99940000       0.68004959      -0.44563121       1.61498299      463        1
H       17.11374956      -5.89806087      16.51549784       1.00800000      -0.43344367      -0.06494087       0.00455549      464        2
H       17.52983585      -6.47156470      15.17764181       1.00800000       0.21467920      -0.02028300       0.18712691      465        2
O       12.09481141       0.22836663      12.71020498      15.99940000       0.87011434      -1.32497099       0.18721454      466        1
H       12.00867035      -0.01801831      13.63113174       1.00800000      -0.06313117       0.08305999       0.04545136      467        2
H       11.19362838       0.32400161      12.40205729       1.00800000       0.09474422      -0.10928144      -0.11272302      468        2
O        9.19702972       3.59344268       0.47848831      15.99940000      -0.68012912      -0.06247761       1.16227763      469        1
H        9.64308232       2.79906465       0.77214210       1.00800000       0.04514538       0.02768801       0.02508673      470        2
H        9.74672003       3.92960537      -0.22937275       1.00800000      -0.11110971       0.06800092       0.05436182      471        2
O       12.54044101      12.10419515       0.71619844      15.99940000       0.26379441      -0.36993965      -0.53143486      472        1
H       12.53611505      11.45587576       0.01200031       1.00800000       0.13914308       0.03509043      -0.08796644      473        2
H       12.13844796      12.88180996       0.32896643       1.00800000      -0.01421603      -0.02573931      -0.00642089      474        2
O        6.30148875       3.80190877      10.35839383      15.99940000      -0.07591191       0.08873869       1.71423630      475        1
H        7.10764720       3.49183738       9.94584502       1.00800000      -0.01117128      -0.14221714       0.20631894      476        2
H        5.60292562       3.49681944       9.77946211       1.00800000       0.00421074       0.05344745       0.07191775      477        2
O       15.38323412      11.31758529       5.65931826      15.99940000      -0.35544226      -0.97319947       0.51765696      478        1
H       15.93647260      11.13247320       4.90044208       1.00800000       0.02788150      -0.12132408       0.08385566      479        2
H       15.74082907      10.76809478       6.35675496       1.00800000      -0.06325402       0.00015996       0.10205768      480        2
O        8.65095950       6.51512606      12.69122810      15.99940000       0.40840902      -1.27421692       0.53506801      481        1
H        8.71128179       5.90523208      11.95595776       1.00800000      -0.02762863       0.06672915      -0.09302132      482        2
H        9.42133309       7.07611575      12.60152226       1.00800000       0.04824751      -0.09725545       0.12132559      483        2
O       11.36448332       4.73797424      12.48247522      15.99940000      -0.40194848      -0.72667292      -0.70335061      484        1
H       12.09245569       4.58658630      13.08527666       1.00800000      -0.11963971      -0.34539340      -0.00601385      485        2
H       11.58271164       5.56061898      12.04445232       1.00800000       0.25117122      -0.04652103       0.09249215      486        2
O       15.03528933      14.33849922       9.60197059      15.99940000      -0.92258637       0.26831554      -0.10161802      487        1
H       14.80494401      15.22914419       9.33753841       1.00800000      -0.11293007      -0.01602568      -0.06978368      488        2
H       15.13809103      13.86250039       8.77790226       1.00800000       0.11574804       0.00108525       0.02442238      489        2
O       15.20253593      13.66383808       7.11328157      15.99940000      -0.03525847       0.07914548      -0.10762683      490        1
H       15.04264231      14.46974294       6.62217701       1.00800000      -0.05438418      -0.07997268      -0.12919425      491        2
H       15.06398847      12.96305253       6.47614994       1.00800000       0.12311546      -0.09749007       0.07862156      492        2
O       23.03705085      12.57783210      16.96064806      15.99940000       0.85482724       0.17039829       0.27151297      493        1
H       22.66354612      11.91253631      16.38262778       1.00800000      -0.08485145       0.06262375       0.04693851      494        2
H       23.69448514      12.10813206      17.47386639       1.00800000      -0.23524580      -0.16171292       0.22880185      495        2
O       14.92450170       6.90657275       9.73629158      15.99940000       0.16239693       0.72948596      -0.50626747      496        1
H       14.70613765       6.25733299       9.06768356       1.00800000       0.10062112       0.00594944      -0.02265551      497        2
H       15.47402583       6.43269277      10.36054528       1.00800000      -0.13041867       0.06543992       0.10653831      498        2
O       25.29890850      11.51947152      18.53252742      15.99940000      -0.64040267      -0.19976945      -0.06307619      499        1
H       25.42652215      11.84089920      17.63998531       1.00800000      -0.22686582      -0.06592438      -0.05004369      500        2
H       26.17467427      11.26546463      18.82364006       1.00800000       0.02393155       0.02489730      -0.16395360      501        2
O        9.17667773       7.74545995      19.03528511      15.99940000       0.86528337       0.16399915      -0.23976897      502        1
H        8.34524972       7.27730435      18.95919361       1.00800000      -0.02821026       0.15232652       0.01589075      503        2
H        9.75797465       7.13096057      19.48329930       1.00800000      -0.08728628      -0.02033778       0.12660659      504        2
O       13.26576000      19.60303426       2.43835466      15.99940000      -0.26130743      -0.31495783      -0.61558239      505        1
H       13.22740481      18.75194976       2.87472150       1.00800000       0.03786967       0.03044054       0.06388095      506        2
H       14.13722650      19.94015076       2.64603389       1.00800000      -0.03711074       0.05971770      -0.08150615      507        2
O       15.03718237      23.44308383       1.57233972      15.99940000       0.90034979       0.76798192       0.04812989      508        1
H       15.24636450      24.37702153       1.58766835       1.00800000      -0.15104835       0.09612120      -0.05956092      509        2
H       15.05887565      23.17717253       2.49160714       1.00800000       0.03066773       0.13397616       0.02847467      510        2
O       11.83757789      13.34061963       7.10821943      15.99940000       0.86332748      -0.16514463      -0.88638389      511        1
H       12.05027116      13.42457357       6.17873299       1.00800000       0.10805903       0.14835841      -0.02929475      512        2
H       12.59814752      13.70350364       7.56217935       1.00800000      -0.19878384       0.39707511       0.04177470      513        2
O       13.91467898       9.39463015      19.05995431      15.99940000      -0.27394166       0.24928486      -0.08202170      514        1
H       13.99965042       9.44718226      18.10798267       1.00800000      -0.08667947       0.22627377       0.00048533      515        2
H       13.00405857       9.13826343      19.20582653       1.00800000      -0.04328598       0.11665309       0.00901854      516        2
O       13.57202203       8.13966711      16.31841367      15.99940000      -0.21276146      -0.05316047      -0.09081055      517        1
H       12.73005279       8.31026965      16.74056833       1.00800000       0.05653575       0.06645297       0.10586685      518        2
H       13.92894236       9.00867619      16.13493873       1.00800000       0.05842493      -0.03256760      -0.00465395      519        2
O       13.60506261      13.53017673      16.12173252      15.99940000      -0.11381498       0.73012175      -0.01751113      520        1
H       14.16471994      14.30524332      16.16956851       1.00800000      -0.09080761       0.11921841      -0.20768600      521        2
H       12.87418949      13.79598347      15.56369724       1.00800000      -0.15479965      -0.10766241       0.11904423      522        2
O       17.31561653      11.77076680       9.98887987      15.99940000       0.02297649      -0.57690769       0.23387219      523        1
H       16.48757984      11.31941337       9.82496731       1.00800000      -0.10301868       0.13569742       0.06865121      524        2
H       17.53671351      12.17822558       9.15142784       1.00800000       0.01954617      -0.06230537       0.00685773      525        2
O        9.37939882      25.64611401       8.56176391      15.99940000       0.11956162       1.33815818       0.23988153      526        1
H        9.03443085      24.96162441       7.98843760       1.00800000      -0.08440886       0.12186840       0.02568967      527        2
H        9.83381997      26.24715281       7.97143692       1.00800000       0.10840267       0.00158576       0.00861229      528        2
O       14.26833509      13.20660476      11.91643993      15.99940000       1.65814583      -0.10494888      -0.40494151      529        1
H       13.93665876      12.31271104      11.83172235       1.00800000      -0.01314453       0.03513377      -0.00453243      530        2
H       14.67470026      13.39302111      11.07006595       1.00800000      -0.05070022      -0.00633730      -0.09982849      531        2
O       11.24236608       9.37551769      18.02820997      15.99940000       0.98979685      -0.03055692      -0.72550311      532        1
H       10.63262646       8.71258380      18.35219626       1.00800000       0.05055801       0.18392634       0.31337887      533        2
H       10.68557042      10.11486693      17.78413468       1.00800000       0.13406521       0.12580157       0.17755098      534        2
O       11.56773562      15.11019404      14.18074723      15.99940000      -0.35952136      -0.20382319       1.01881995      535        1
H       12.04753700      15.34401918      13.38617269       1.00800000       0.15244914      -0.08947152       0.14717982      536        2
H       10.72804274      14.77667367      13.86465871       1.00800000       0.00762399       0.05142596      -0.08446816      537        2
O       12.94346511      17.21922472      18.59046561      15.99940000      -1.64305295      -0.61747014      -0.60892043      538        1
H       12.78504246      17.85609961      19.28726162       1.00800000       0.05276000      -0.05788911       0.01443745      539        2
H       12.06971839      16.93634724      18.32068937       1.00800000      -0.16247180      -0.07102869       0.18615094      540        2
O       16.75883345       0.41531156      -8.00765593      15.99940000      -0.27364482       0.47634379      -0.03093861      541        1
H       16.13392079       0.99694932      -7.57474279       1.00800000       0.01089423       0.08417608      -0.03401742      542        2
H       17.53758342       0.44331851      -7.45178193       1.00800000      -0.06057441      -0.07530949       0.06396158      543        2
O       17.78855402       5.30238722       0.00254291      15.99940000       0.51233173       0.75606405       0.86060083      544        1
H       16.99495488       4.80184479      -0.18690254       1.00800000       0.06099812       0.00064947       0.05799708      545        2
H       17.49878281       6.21452453       0.01898226       1.00800000      -0.01969784       0.03129406       0.04534318      546        2
O       22.42818399       1.92977968      12.33402091      15.99940000      -0.68116524      -0.98186089       0.88064073      547        1
H       22.20417785       1.30388757      11.64531746       1.00800000       0.01194004       0.12146102      -0.12884270      548        2
H       23.35819830       1.77847345      12.50258086       1.00800000      -0.02768034      -0.02395650       0.00512361      549        2
O       18.54222102      -2.43473871       5.97791399      15.99940000       0.61577951      -0.81999324       0.04234356      550        1
H       18.69978600      -3.12473237       6.62236247       1.00800000      -0.03688909       0.06170699       0.14261413      551        2
H       19.15083884      -2.62866347       5.26502645       1.00800000       0.37203782       0.02699423       0.26533529      552        2
O       15.04367195      -1.79386810      12.68826155      15.99940000      -0.63092624       0.15466811       0.52288129      553        1
H       14.70950986      -1.06464222      13.21056189       1.00800000      -0.08889216      -0.03575853       0.06507171      554        2
H       15.30496578      -2.45110441      13.33324135       1.00800000       0.04255127       0.01544498       0.00529568      555        2
O       22.22591845       6.60761572      23.84599958      15.99940000       0.87239843       0.07755666      -0.17635933      556        1
H       22.46700453       5.70422775      23.64106261       1.00800000      -0.14318693      -0.06908502       0.08092939      557        2
H       21.73678314       6.90536536      23.07897701       1.00800000       0.02838700      -0.00144316       0.00327216      558        2
O       23.12147551       3.74447465      -3.94485833      15.99940000      -0.15442128       0.36268154      -0.49891914      559        1
H       23.53896693       4.24192136      -4.64805155       1.00800000      -0.07450029       0.08419070      -0.02650432      560        2
H       22.84906553       2.92569323      -4.35913124       1.00800000       0.05283119       0.01204856      -0.05117254      561        2
O       20.95610471       6.31605363       9.43370904      15.99940000      -0.38438506      -0.27761289      -0.37307381      562        1
H       21.29550843       5.53071609       9.86299081       1.00800000      -0.04066357      -0.08255924      -0.12918195      563        2
H       20.08246441       6.43471689       9.80640761       1.00800000       0.04842139       0.05258670       0.12355395      564        2
O       23.62245632      -3.22124733       2.13320345      15.99940000      -0.06537538      -0.57289346       0.21343382      565        1
H       24.21361846      -2.85812387       1.47373364       1.00800000       0.03250562       0.07040874       0.10459889      566        2
H       22.77376978      -2.82291118       1.94009309       1.00800000       0.02478453       0.05877382       0.08168642      567        2
O       14.65381037       3.14652362       4.47746328      15.99940000      -0.33019677       0.23650497      -0.12218547      568        1
H       15.36465304       2.54733425       4.24963285       1.00800000      -0.04810151       0.04937525      -0.18320007      569        2
H       14.24423229       2.75136479       5.24709140       1.00800000       0.16024148      -0.02808227       0.06639717      570        2
O       11.53882322       4.44644821       4.09238835      15.99940000       0.30274742      -1.42499712      -0.11113616      571        1
H       12.47250486       4.33225612       3.91510255       1.00800000       0.04176966       0.23981887      -0.10177376      572        2
H       11.50867727       4.92969633       4.91809640       1.00800000      -0.06334948       0.24613775      -0.20656906      573        2
O       20.17736393      -1.59682703      18.06927424      15.99940000      -0.59717200       0.55981164       0.47511941      574        1
H       20.56333035      -2.41720620      17.76228843       1.00800000      -0.07856071       0.12024921      -0.24853566      575        2
H       20.91936994      -1.09265749      18.40314863       1.00800000       0.04343853       0.05078370      -0.17287290      576        2
O       18.17886354       8.21960287       0.56774429      15.99940000      -1.03174842       0.55454679      -1.14390744      577        1
H       18.55605592       8.83511495       1.19631611       1.00800000      -0.09578480      -0.12995099       0.10770337      578        2
H       17.23849088       8.24155835       0.74508623       1.00800000      -0.05567093      -0.13483002      -0.00321903      579        2
O       12.78693594      13.43976239       4.66889923      15.99940000      -0.67443664       0.20725425       0.84715195      580        1
H       13.67111634      13.49480474       4.30636870       1.00800000      -0.10624039       0.09759767      -0.08888875      581        2
H       12.30510634      12.89682268       4.04496891       1.00800000      -0.11038061       0.02794400       0.09285877      582        2
O       11.03644993       9.06799871       7.60031183      15.99940000       0.28470425       0.26022888      -0.89368810      583        1
H       10.79600503       9.57811497       6.82687798       1.00800000       0.12180838       0.01024148      -0.09278940      584        2
H       11.98154151       8.93985588       7.51899286       1.00800000      -0.03297337      -0.31492992      -0.12749361      585        2
O       25.38700867      12.14010317      12.51984454      15.99940000       0.39268264       0.30511953      -1.65611090      586        1
H       26.26229397      11.90983448      12.20826179       1.00800000      -0.01274646      -0.03853282      -0.16664116      587        2
H       25.30245365      13.07430114      12.32917094       1.00800000       0.09665772       0.03844424      -0.04183003      588        2
O       12.92746963      10.91156538      11.10840474      15.99940000       0.19692851      -0.23295580       0.15579338      589        1
H       12.85517381      10.42768462      11.93112353       1.00800000       0.10926420       0.08423207       0.07640185      590        2
H       13.47191207      10.35619498      10.55039227       1.00800000      -0.13629901      -0.12837240      -0.02238647      591        2
O       16.87823161       0.72314200       7.98361935      15.99940000       0.41211377       0.48353825       0.32916180      592        1
H       16.85628436       0.71554633       8.94053752       1.00800000       0.15192337      -0.06431514       0.02275833      593        2
H       17.61888370       1.28872890       7.76503803       1.00800000       0.00706703       0.03928627      -0.02047507      594        2
O        9.62160796      11.44375317      -1.23958620      15.99940000      -0.05791783      -0.40953738      -0.10657954      595        1
H        9.69627691      12.30545975      -0.82956379       1.00800000       0.17505100      -0.01518503      -0.06139065      596        2
H        8.71214559      11.39620548      -1.53428853       1.00800000      -0.04026353       0.10411992       0.08488677      597        2
O       15.07043018      13.83704382       3.27286409      15.99940000      -0.11120304      -0.86385951      -1.69924034      598        1
H       14.88988956      13.32371297       2.48538143       1.00800000       0.15120813      -0.17912880      -0.06181330      599        2
H       16.00680583      13.71495916       3.42947850       1.00800000       0.00307594       0.13761366      -0.01815494      600        2
O       16.08524489      17.46252354       6.07990756      15.99940000      -0.04185652       1.00250162      -1.59463656      601        1
H       16.25620017      18.10370895       6.76975296       1.00800000      -0.01663143      -0.18639760       0.13532738      602        2
H       16.90008718      16.96560800       6.00684357       1.00800000      -0.13628180      -0.17302550       0.01430620      603        2
O       17.77805314      12.58552745       7.28659090      15.99940000       0.17031350      -0.88450771      -0.07701193      604        1
H       17.14544215      13.28628541       7.12855890       1.00800000       0.14378182       0.10106413       0.15680484      605        2
H       18.02473878      12.28329299       6.41250124       1.00800000       0.04315460       0.17999787      -0.07717610      606        2
O       17.29078567      15.19727922      11.26620092      15.99940000      -1.31010992       0.18404055      -0.80976688      607        1
H       16.57828038      14.68811981      10.87977554       1.00800000      -0.29358617       0.22345698       0.05952065      608        2
H       17.05676765      15.27391025      12.19118474       1.00800000       0.03159301       0.17079713      -0.03538243      609        2
O       21.14037311      14.29081224      17.65958971      15.99940000       0.34814517       0.45269406      -0.00895224      610        1
H       20.92711516      13.92033731      18.51603657       1.00800000       0.05847902       0.00153064      -0.00312811      611        2
H       21.90919235      13.79945028      17.37025923       1.00800000       0.10407248       0.14430196       0.02069314      612        2
O       12.31515995      20.36044593      -0.26429515      15.99940000       0.15733079       0.15848662      -0.45203170      613        1
H       12.39039484      20.39352635       0.68937043       1.00800000      -0.15684444       0.03157123      -0.01578250      614        2
H       12.78267969      21.13813176      -0.56902958       1.00800000       0.07389492      -0.00356044       0.03501607      615        2
O        9.97951186      11.38300915       5.95961952      15.99940000      -0.07238863      -0.93701774      -0.22603943      616        1
H       10.05417238      11.27746384       5.01119026       1.00800000       0.10476081      -0.28614810       0.01934767      617        2
H       10.80813622      11.78366399       6.22246832       1.00800000      -0.05070697       0.03999007      -0.02018545      618        2
O       14.61767094       6.11410006       4.75868619      15.99940000      -0.97534749      -0.15073621      -0.37905288      619        1
H       14.93873312       5.22887403       4.93051801       1.00800000      -0.10651318      -0.00946158       0.06085419      620        2
H       15.32244484       6.68763507       5.05965691       1.00800000      -0.10951625      -0.01149643       0.09265600      621        2
O       19.78751560      10.60417343      10.20713626      15.99940000      -0.94102055      -0.61733661      -0.35159324      622        1
H       18.86402313      10.84640676      10.13845952       1.00800000      -0.05143996       0.01189745       0.05319790      623        2
H       19.92298469      10.43673416      11.13979006       1.00800000      -0.08808821      -0.42376057      -0.08677164      624        2
O       14.13188122      16.84334923      22.07293937      15.99940000      -0.47864033      -0.31404551      -1.21959398      625        1
H       13.80638902      17.29008614      22.85442110       1.00800000       0.00476899      -0.04208993      -0.04954262      626        2
H       14.54116773      16.04473108      22.40599430       1.00800000      -0.02233233      -0.03318889      -0.11861033      627        2
O       23.73737589      12.40412134      20.68405593      15.99940000      -0.88554362       0.36562619       0.45619446      628        1
H       24.24047509      12.40545964      21.49837863       1.00800000       0.03459496       0.17065921      -0.02747587      629        2
H       24.31340990      11.98187675      20.04677490       1.00800000      -0.06613754       0.04689650       0.00363518      630        2
O       17.38906331      18.11449200       3.60081057      15.99940000       0.82520599      -0.84335157       1.13151958      631        1
H       17.60449224      19.03092612       3.77393216       1.00800000      -0.18915822       0.03231477      -0.07958101      632        2
H       16.58850547      17.95743868       4.10148357       1.00800000       0.13346501      -0.20136075       0.15472491      633        2
O       21.85549237      16.42314261      12.33605107      15.99940000      -0.07521044      -0.43474137       0.43040691      634        1
H       21.40691745      16.71041985      11.54076192       1.00800000      -0.00675332       0.00596720       0.04033189      635        2
H       21.37926916      15.63945523      12.61041846       1.00800000       0.11958351      -0.15346039      -0.11580532      636        2
O       18.13630875      10.34594697      14.69488435      15.99940000       0.25548159       0.02245419       0.23390576      637        1
H       18.30333102       9.84182500      15.49124885       1.00800000       0.04209431       0.01672723       0.01903405      638        2
H       18.96097794      10.30936077      14.21030979       1.00800000       0.16408722       0.43122444       0.23369778      639        2
O       25.23945592      20.68141218      12.72673702      15.99940000      -0.01002213       0.00348561      -0.74832313      640        1
H       25.87506494      20.09439431      12.31729458       1.00800000      -0.06306033       0.01243897      -0.16160479      641        2
H       25.69789027      21.51855923      12.79922617       1.00800000       0.07535739      -0.05235369       0.08133386      642        2
O       18.33598393      19.07205300      15.75586831      15.99940000       0.38031833       0.70086729       1.37610594      643        1
H       18.30730916      18.11558855      15.78007536       1.00800000      -0.12831083       0.04349136      -0.12980974      644        2
H       19.16142772      19.27635489      15.31639627       1.00800000      -0.03440566       0.01082037      -0.03833975      645        2
O       10.38235402      18.63383301      22.70907802      15.99940000       0.04814779       0.22103994       0.28330554      646        1
H       10.01098702      18.44167156      23.57011949       1.00800000      -0.08712084       0.15178557       0.00971914      647        2
H        9.66957731      19.05530578      22.22893120       1.00800000      -0.04206469      -0.34146121      -0.22728222      648        2
