Si 3x3x3 diamond a=5.4843 (5.43*1.01) rattle d=0.10 A seed=0

216 atoms
1 atom types

0.0 16.4528999999999996 xlo xhi
0.0 16.4528999999999996 ylo yhi
0.0 16.4528999999999996 zlo zhi

Masses

1 28.08500000

Atoms # atomic

1 1 2.7392337464290872e-02 1.6406857342752776e+01 1.6361094704787238e+01
2 1 1.2743805271057060e+00 1.4337290478400546e+00 1.4536261154555443e+00
3 1 2.1327155153435976e-02 2.7880493121968000e+00 2.7508749982930851e+00
4 1 1.4580894847575536e+00 4.1763957108243064e+00 4.0137727000340293e+00
5 1 2.8136308553175140e+00 1.6359617115061095e+01 2.7880810892859889e+00
6 1 4.0483561241205113e+00 1.4437107844699775e+00 4.1215172440498185e+00
7 1 2.7020923781074777e+00 2.7266874442395319e+00 1.6358563934229092e+01
8 1 4.0380816552999130e+00 4.1473498829387259e+00 1.4005129023148501e+00
9 1 2.3077022296250777e-02 1.6429635510852378e+01 5.5837419871578424e+00
10 1 1.4672420677552460e+00 1.4081833968961390e+00 6.8854668552535632e+00
11 1 3.7689346114188012e-02 2.7199342847958210e+00 8.1534693010044812e+00
12 1 1.4153726680388163e+00 4.1182958644951455e+00 9.5595733751117908e+00
13 1 2.7393170717663580e+00 7.7897566869800067e-02 8.3132587031912504e+00
14 1 4.0847840393418142e+00 1.3853809661459522e+00 9.5618988782151870e+00
15 1 2.7610100060399394e+00 2.7097322451014270e+00 5.4626238001056322e+00
16 1 4.1912798704009582e+00 4.0586565187066759e+00 6.8800124289372082e+00
17 1 1.6369703068716479e+01 6.6528829530679567e-02 1.1026019661497736e+01
18 1 1.3189488885985905e+00 1.4463718461621409e+00 1.2251388606961038e+01
19 1 1.6420123412109135e+01 2.6722058933789681e+00 1.3700817873329857e+01
20 1 1.4303398540574590e+00 4.0593534417987494e+00 1.4992229260212882e+01
21 1 2.7230603679643060e+00 1.6392602608901854e+01 1.3628900609123823e+01
22 1 4.1292914771973699e+00 1.3308142265637846e+00 1.5116223975591272e+01
23 1 2.6820530887936429e+00 2.8305726221012999e+00 1.0941622033648969e+01
24 1 4.0343240559140456e+00 4.1390466303079414e+00 1.2425105910613572e+01
25 1 1.6440975430943158e+01 5.5752180987381479e+00 1.6452879162737531e+01
26 1 1.3561207249698153e+00 6.8794176904030753e+00 1.4700943010470648e+00
27 1 8.9788734987553076e-02 8.2184590278618188e+00 2.7936957690616588e+00
28 1 1.3705595390975238e+00 9.6033874320393533e+00 4.1703821401427614e+00
29 1 2.7250811698711344e+00 5.5311967143577458e+00 2.7843785755979500e+00
30 1 4.1996369373226754e+00 6.7783615266561803e+00 4.1590280234152619e+00
31 1 2.8276347857249120e+00 8.3200352379849285e+00 1.6355841260993074e+01
32 1 4.1859530180491147e+00 9.6937640080132681e+00 1.4625170359221928e+00
33 1 1.6382652802446501e+01 5.5788257627645912e+00 5.5622871111441041e+00
34 1 1.4355497655086142e+00 6.8513725847615659e+00 6.8018495839278605e+00
35 1 6.0376115743661592e-02 8.3111560319566937e+00 8.1796760544584579e+00
36 1 1.3788618815244373e+00 9.5860755657949053e+00 9.6837284631962319e+00
37 1 2.6502521422376870e+00 5.5307012391313126e+00 8.2493246493897985e+00
38 1 4.0188980730227044e+00 6.8992189545653479e+00 9.5007233459047136e+00
39 1 2.7937402004712859e+00 8.2290017446524146e+00 5.5701208441594012e+00
40 1 4.0264414993448145e+00 9.6657884559224776e+00 6.7687130017534196e+00
41 1 1.6421761995760825e+01 5.4703597463895672e+00 1.1061812416156814e+01
42 1 1.3835213684456915e+00 6.8071479186341861e+00 1.2288010142818869e+01
43 1 7.7623664131835968e-02 8.1716238856834646e+00 1.3635660941167055e+01
44 1 1.3287411514015155e+00 9.6147496129625463e+00 1.5092643100434652e+01
45 1 2.8040921551825555e+00 5.4963951904012376e+00 1.3668434242886240e+01
46 1 4.0958042685361784e+00 6.9189991941941820e+00 1.5107126292483951e+01
47 1 2.8339655285394887e+00 8.2003308822183367e+00 1.0979122302104258e+01
48 1 4.1320098403226346e+00 9.6671832416550103e+00 1.2268769707637306e+01
49 1 1.6434202067349627e+01 1.1050591792332460e+01 1.6361513377713642e+01
50 1 1.4356162560363004e+00 1.2322751807474244e+01 1.4370357970556209e+00
51 1 1.6354890912161459e+01 1.3683759231551655e+01 2.6578760074331282e+00
52 1 1.4015979152673277e+00 1.5036594819719911e+01 4.1537554141319575e+00
53 1 2.8309102853884180e+00 1.0893963420452250e+01 2.8151056590801549e+00
54 1 4.0251178303200676e+00 1.2315829101662178e+01 4.0991798122357155e+00
55 1 2.7399199093666931e+00 1.3806042464387208e+01 5.5138237620365682e-02
56 1 4.0749964725438517e+00 1.5035792357100158e+01 1.4436990408378636e+00
57 1 7.6261434547537976e-02 1.0970741301108729e+01 5.4531591461924656e+00
58 1 1.4700584696321837e+00 1.2302863709073540e+01 6.7919174757853122e+00
59 1 7.6019624260813962e-02 1.3773217079622249e+01 8.2600278811142704e+00
60 1 1.4627577263555904e+00 1.5166967915442882e+01 9.6471747006603508e+00
61 1 2.8142902819095355e+00 1.0918029348064422e+01 8.1546993113802060e+00
62 1 4.1472373698629870e+00 1.2382598707330951e+01 9.5309355857564544e+00
63 1 2.7212614546209752e+00 1.3792801153243211e+01 5.4965801535100445e+00
64 1 4.1288921829852541e+00 1.5020650954578159e+01 6.8605794497235744e+00
65 1 4.6869454789839901e-03 1.0886387128049254e+01 1.1064988538625341e+01
66 1 1.3853541200911550e+00 1.2240956776532862e+01 1.2394204840245077e+01
67 1 9.5653142768029151e-02 1.3728724005664189e+01 1.3674686327256532e+01
68 1 1.3085765431455569e+00 1.5116330326783372e+01 1.5020846479691361e+01
69 1 2.7576875785035719e+00 1.0989047835275926e+01 1.3803234618624876e+01
70 1 4.0276780531059755e+00 1.2339669564731723e+01 1.5130644495856529e+01
71 1 2.6775953480949317e+00 1.3688363346356905e+01 1.0881179099690995e+01
72 1 4.1584011727551555e+00 1.4999378577351896e+01 1.2318693341671594e+01
73 1 5.5590045262241468e+00 1.6447360067350001e+01 8.2524386728177135e-02
74 1 6.9085584235477739e+00 1.4541397920223531e+00 1.2965556018097812e+00
75 1 5.3990125810661267e+00 2.6562152507138439e+00 2.8159208588694637e+00
76 1 6.8821889958694884e+00 4.1125393387597704e+00 4.0459336832392960e+00
77 1 8.2611966875454570e+00 1.6416503477569162e+01 2.7843259726531890e+00
78 1 9.5895960657734634e+00 1.3725689721089054e+00 4.1711581464919743e+00
79 1 8.1449990951046765e+00 2.7579017006647004e+00 1.6392346989459174e+01
80 1 9.6591523503627137e+00 4.1109942072258523e+00 1.4688140666735641e+00
81 1 5.4208886649351440e+00 9.2603828024853466e-02 5.5444834073217217e+00
82 1 6.8516270993150536e+00 1.4337818128359272e+00 6.8759447810482239e+00
83 1 5.5153242127982764e+00 2.8248881525414777e+00 8.1395040832822581e+00
84 1 6.9223726407916795e+00 4.0895879559932480e+00 9.5626341232201408e+00
85 1 8.3252553542419960e+00 5.6238100415275639e-02 8.2235570277559180e+00
86 1 9.5820506792849560e+00 1.4465807811743594e+00 9.5148879744429777e+00
87 1 8.2681337513827735e+00 2.7999809247410297e+00 5.5441392759432233e+00
88 1 9.5619823449479657e+00 4.1725528365492108e+00 6.8004406883751329e+00
89 1 5.4567615900969137e+00 1.6436389622440878e+01 1.0976881996726034e+01
90 1 6.7778977331081114e+00 1.3524645601278613e+00 1.2239735138021384e+01
91 1 5.5331761452694801e+00 2.8125251824468513e+00 1.3638536335824039e+01
92 1 6.8961321538533591e+00 4.1774456176789281e+00 1.5178190664574357e+01
93 1 8.2952081124737447e+00 1.6437721297088803e+01 1.3806687741701932e+01
94 1 9.6923218809704714e+00 1.3718103958401158e+00 1.5132514307716781e+01
95 1 8.3092175335346319e+00 2.7373794143937507e+00 1.1041357248219418e+01
96 1 9.6378387132123731e+00 4.0720098511949114e+00 1.2393205453996694e+01
97 1 5.4984369571718998e+00 5.4030690306866616e+00 1.6431176085260933e+01
98 1 6.7701232026795610e+00 6.8506083926433998e+00 1.3567829216285847e+00
99 1 5.4690474885940903e+00 8.2437100707181568e+00 2.6666881320352149e+00
100 1 6.9421287819913688e+00 9.6343350896150053e+00 4.1779812716785543e+00
101 1 8.3058102464527526e+00 5.5009640093846954e+00 2.6501936441809204e+00
102 1 9.6398223648235515e+00 6.8691801708526707e+00 4.1784164444340801e+00
103 1 8.2328820946948706e+00 8.2890988190728390e+00 9.9402058614498356e-02
104 1 9.5676359622735774e+00 9.5317292880041347e+00 1.3494099598907807e+00
105 1 5.5349099979731351e+00 5.4721457863716614e+00 5.5019760218858442e+00
106 1 6.7808466943843344e+00 6.9005997021867955e+00 6.8113914803732998e+00
107 1 5.4224235120808038e+00 8.2990399997166389e+00 8.2393325642241191e+00
108 1 6.8522747884692494e+00 9.6772897530496973e+00 9.5147274872122001e+00
109 1 8.2656808900681789e+00 5.4498964579529208e+00 8.1615319499970163e+00
110 1 9.6324847299934557e+00 6.8279393901725864e+00 9.5635041664987863e+00
111 1 8.3151855530458381e+00 8.1663096681358969e+00 5.4867347315675472e+00
112 1 9.5023276401342684e+00 9.5301986182273897e+00 6.9320587467267121e+00
113 1 5.5421495096505353e+00 5.4956670980107987e+00 1.0913090679198273e+01
114 1 6.8669245165242607e+00 6.7578043052227219e+00 1.2382273726187584e+01
115 1 5.5276501361127455e+00 8.2556590047132712e+00 1.3733017736855039e+01
116 1 6.7701182865249070e+00 9.5468061938101947e+00 1.5096700609619587e+01
117 1 8.2052873532057795e+00 5.5827046457162899e+00 1.3795499071475035e+01
118 1 9.5279265805045075e+00 6.8733671185299059e+00 1.5121068021220690e+01
119 1 8.1537586828601771e+00 8.1889691294202347e+00 1.1011783569385100e+01
120 1 9.6777466186845658e+00 9.5658735300412268e+00 1.2287463742338256e+01
121 1 5.5486584005460440e+00 1.0985596536045136e+01 1.6448217684341156e+01
122 1 6.8066050042855792e+00 1.2254206669729664e+01 1.2746532841793952e+00
123 1 5.5002940361128188e+00 1.3648972054692013e+01 2.8372565956853646e+00
124 1 6.7768704456772291e+00 1.5072242757665421e+01 4.0921569594141918e+00
125 1 8.1729122950571060e+00 1.1018351145000787e+01 2.7708909524160621e+00
126 1 9.6426765370103737e+00 1.2256236715179298e+01 4.0837736831392810e+00
127 1 8.2304166148668472e+00 1.3696094228746047e+01 1.6361023512374548e+01
128 1 9.5363304909801574e+00 1.5170829929660924e+01 1.3035889449506637e+00
129 1 5.5547104664925548e+00 1.1033027431812888e+01 5.4625587514156217e+00
130 1 6.8487317039688520e+00 1.2404475361529986e+01 6.8915122651140424e+00
131 1 5.5516887472858141e+00 1.3762269317166425e+01 8.2647042958881212e+00
132 1 6.9379698212013752e+00 1.5146386426618916e+01 9.5333375375165978e+00
133 1 8.2760948550162485e+00 1.0885936264622909e+01 8.2116212480588047e+00
134 1 9.5768753774306852e+00 1.2280108618795097e+01 9.6851060217271971e+00
135 1 8.1454053356722333e+00 1.3611729882997714e+01 5.4488841607327965e+00
136 1 9.6956739436482433e+00 1.5034764025677687e+01 6.9215138531035469e+00
137 1 5.4189227274040936e+00 1.0985875670959675e+01 1.1060281867035879e+01
138 1 6.8986776469131605e+00 1.2435776595035698e+01 1.2354586329817808e+01
139 1 5.5809669413106846e+00 1.3778159406344001e+01 1.3766399645220387e+01
140 1 6.9330729773822997e+00 1.5108123303452324e+01 1.5053097909275312e+01
141 1 8.2321064880113983e+00 1.0913900079136473e+01 1.3766258824776340e+01
142 1 9.5315407003229744e+00 1.2355114589797317e+01 1.5089004785915821e+01
143 1 8.2608305606955383e+00 1.3762847319733051e+01 1.0890565577212783e+01
144 1 9.6225131923335958e+00 1.5064616176493036e+01 1.2362515287133592e+01
145 1 1.1007396908629300e+01 1.7095917152124371e-02 4.6577215371743030e-02
146 1 1.2343680051440929e+01 1.3636485618258545e+00 1.3284287730897073e+00
147 1 1.0914430333999343e+01 2.7812104212183639e+00 2.7812922705624916e+00
148 1 1.2278771502595321e+01 4.2075924833222231e+00 4.1474551560578794e+00
149 1 1.3716993224641964e+01 6.8235070308993534e-02 2.7394540866606309e+00
150 1 1.5077013974020064e+01 1.3227298800155074e+00 4.0444520962781381e+00
151 1 1.3753074115776183e+01 2.8109721936478085e+00 3.5559755619191807e-02
152 1 1.5055589303339188e+01 4.1283694182438104e+00 1.3837574947347981e+00
153 1 1.1055913216694860e+01 1.6430434842391140e+01 5.4172565304132005e+00
154 1 1.2415061578665801e+01 1.4500206993773737e+00 6.7650281190003785e+00
155 1 1.0908244806167897e+01 2.7694067307198922e+00 8.2842190311269679e+00
156 1 1.2361013501348111e+01 4.0515428392253119e+00 9.5210533150524395e+00
157 1 1.3711944526813037e+01 6.3102081331802284e-02 8.1698634362144258e+00
158 1 1.4996851538974555e+01 1.3812839991586610e+00 9.5358884296270503e+00
159 1 1.3624234744096853e+01 2.7968029196082536e+00 5.5485453212155855e+00
160 1 1.5061492110219648e+01 4.0720402720336564e+00 6.8107991778873913e+00
161 1 1.0940794285165673e+01 1.5381528623252413e-02 1.0974164015622495e+01
162 1 1.2310744836234539e+01 1.3985591958476364e+00 1.2374828488389491e+01
163 1 1.0980255789595008e+01 2.7196089830103749e+00 1.3735530556387825e+01
164 1 1.2358055556642821e+01 4.0812897714761336e+00 1.5042465202532847e+01
165 1 1.3719899775803857e+01 2.2468347800370145e-02 1.3732909687784360e+01
166 1 1.5058392601779570e+01 1.3842297814432512e+00 1.5178978927039282e+01
167 1 1.3696354903808789e+01 2.8107529429179987e+00 1.0884864738261392e+01
168 1 1.5156870650740393e+01 4.2015662311059776e+00 1.2292047803170787e+01
169 1 1.0871020283134438e+01 5.4809016826867598e+00 1.6389442451532457e+01
170 1 1.2434001250857053e+01 6.9349146870235092e+00 1.4632079771860544e+00
171 1 1.0989373931548151e+01 8.2294820733805274e+00 2.8086935698760462e+00
172 1 1.2370144793137804e+01 9.5472365352734485e+00 4.2000822076515725e+00
173 1 1.3698689889993105e+01 5.5390112456618601e+00 2.7423375913976975e+00
174 1 1.5018496248621023e+01 6.8145603694018826e+00 4.1281071537605634e+00
175 1 1.3639350416852855e+01 8.1291975717232958e+00 1.6439678244869988e+01
176 1 1.5134264434371843e+01 9.6203564547485776e+00 1.3359042751614751e+00
177 1 1.1012048187859099e+01 5.4812029266219753e+00 5.5842002704514053e+00
178 1 1.2394881330488955e+01 6.9215012882543512e+00 6.8072847812277555e+00
179 1 1.0899058992569763e+01 8.1663107818213998e+00 8.2129029928692532e+00
180 1 1.2342104823924181e+01 9.5364468695464453e+00 9.6535139541977166e+00
181 1 1.3784436230883445e+01 5.4475009971520487e+00 8.2280628393512583e+00
182 1 1.5100699920502551e+01 6.8998506347862243e+00 9.5270194908930712e+00
183 1 1.3666924212280630e+01 8.2725911991716803e+00 5.4979384628585253e+00
184 1 1.5161814158687790e+01 9.5870966723977489e+00 6.8366975690067688e+00
185 1 1.0929901443506141e+01 5.4305745145309503e+00 1.0998753266952679e+01
186 1 1.2292612200364541e+01 6.9278301041286090e+00 1.2293804679130421e+01
187 1 1.1003271926245032e+01 8.2400868283803455e+00 1.3736441759575783e+01
188 1 1.2418758355126368e+01 9.5315226902938814e+00 1.5011788109175091e+01
189 1 1.3635130444267061e+01 5.3995878041836436e+00 1.3717596204720749e+01
190 1 1.5014971230390453e+01 6.9168085860186972e+00 1.4986347106109374e+01
191 1 1.3685671394346970e+01 8.2210907942777141e+00 1.0911905660135366e+01
192 1 1.5053006243903457e+01 9.5420832871056902e+00 1.2296040621266945e+01
193 1 1.1053974212145718e+01 1.0952035073261966e+01 1.6430072988252142e+01
194 1 1.2361909890486835e+01 1.2372503371349701e+01 1.4031303089855369e+00
195 1 1.0885551793444803e+01 1.3727130515806937e+01 2.7893347199795953e+00
196 1 1.2398788673228690e+01 1.5099531850387871e+01 4.0393396116469118e+00
197 1 1.3627498064779354e+01 1.0933210738621163e+01 2.8276617618931925e+00
198 1 1.5076348505766695e+01 1.2418769781429530e+01 4.1051599906554053e+00
199 1 1.3761773621312024e+01 1.3707775435137929e+01 4.1740452286476770e-02
200 1 1.5045260855333437e+01 1.5159798052727339e+01 1.3242166137473166e+00
201 1 1.0869835365756856e+01 1.1012833157223369e+01 5.5196208926489163e+00
202 1 1.2371055289985136e+01 1.2377158000462664e+01 6.8726278422036966e+00
203 1 1.0891655790615703e+01 1.3744590744476010e+01 8.1277697047561404e+00
204 1 1.2276243575790941e+01 1.5066000681039068e+01 9.5731988760817313e+00
205 1 1.3634543032482904e+01 1.0953991520807980e+01 8.2511734487246677e+00
206 1 1.5057317686306485e+01 1.2381374896657341e+01 9.5437094190756540e+00
207 1 1.3639515054454185e+01 1.3760529968897698e+01 5.5180456259524115e+00
208 1 1.5067699138658950e+01 1.5009178456963541e+01 6.8881117478657954e+00
209 1 1.1018591149985244e+01 1.0901388530641565e+01 1.1006460347386037e+01
210 1 1.2310802417276356e+01 1.2422698722977936e+01 1.2389982937521678e+01
211 1 1.0923346234046679e+01 1.3798355263927560e+01 1.3615796551220926e+01
212 1 1.2276639802895680e+01 1.5030205594229425e+01 1.5128241016673975e+01
213 1 1.3715983606100323e+01 1.0961475081578813e+01 1.3655256667754438e+01
214 1 1.5133118422071920e+01 1.2263096281610318e+01 1.5031293244080970e+01
215 1 1.3772022063914994e+01 1.3700959492893217e+01 1.1043963547319924e+01
216 1 1.5102157820846452e+01 1.5139733929391674e+01 1.2277155654585824e+01
