si_diamond_n4_rattle compare

512 atoms
1 atom types

0.0 21.9372000000000007 xlo xhi
0.0 21.9372000000000007 ylo yhi
0.0 21.9372000000000007 zlo zhi

Masses

1 28.08500000

Atoms # atomic

1 1 2.7392337464290876e-02 2.1891157342752777e+01 2.1845394704787239e+01
2 1 1.2743805271057060e+00 1.4337290478400548e+00 1.4536261154555443e+00
3 1 2.1327155153435973e-02 2.7880493121968000e+00 2.7508749982930851e+00
4 1 1.4580894847575536e+00 4.1763957108243064e+00 4.0137727000340293e+00
5 1 2.8136308553175140e+00 2.1843917115061096e+01 2.7880810892859893e+00
6 1 4.0483561241205113e+00 1.4437107844699772e+00 4.1215172440498185e+00
7 1 2.7020923781074777e+00 2.7266874442395319e+00 2.1842863934229094e+01
8 1 4.0380816552999130e+00 4.1473498829387259e+00 1.4005129023148501e+00
9 1 2.3077022296250777e-02 2.1913935510852379e+01 5.5837419871578424e+00
10 1 1.4672420677552460e+00 1.4081833968961390e+00 6.8854668552535632e+00
11 1 3.7689346114188005e-02 2.7199342847958210e+00 8.1534693010044812e+00
12 1 1.4153726680388163e+00 4.1182958644951455e+00 9.5595733751117908e+00
13 1 2.7393170717663580e+00 7.7897566869800067e-02 8.3132587031912504e+00
14 1 4.0847840393418142e+00 1.3853809661459522e+00 9.5618988782151870e+00
15 1 2.7610100060399394e+00 2.7097322451014270e+00 5.4626238001056322e+00
16 1 4.1912798704009582e+00 4.0586565187066759e+00 6.8800124289372082e+00
17 1 2.1854003068716480e+01 6.6528829530679567e-02 1.1026019661497738e+01
18 1 1.3189488885985905e+00 1.4463718461621411e+00 1.2251388606961040e+01
19 1 2.1904423412109136e+01 2.6722058933789681e+00 1.3700817873329857e+01
20 1 1.4303398540574590e+00 4.0593534417987494e+00 1.4992229260212881e+01
21 1 2.7230603679643055e+00 2.1876902608901855e+01 1.3628900609123825e+01
22 1 4.1292914771973699e+00 1.3308142265637846e+00 1.5116223975591270e+01
23 1 2.6820530887936429e+00 2.8305726221012999e+00 1.0941622033648967e+01
24 1 4.0343240559140456e+00 4.1390466303079414e+00 1.2425105910613572e+01
25 1 2.1925275430943159e+01 9.0918098738147476e-02 1.6452879162737528e+01
26 1 1.3561207249698153e+00 1.3951176904030755e+00 1.7922994301047066e+01
27 1 8.9788734987553076e-02 2.7341590278618200e+00 1.9246595769061656e+01
28 1 1.3705595390975238e+00 4.1190874320393540e+00 2.0623282140142756e+01
29 1 2.7250811698711348e+00 4.6896714357745867e-02 1.9237278575597948e+01
30 1 4.1996369373226754e+00 1.2940615266561810e+00 2.0611928023415256e+01
31 1 2.8276347857249120e+00 2.8357352379849292e+00 1.6355841260993074e+01
32 1 4.1859530180491147e+00 4.2094640080132688e+00 1.7915417035922193e+01
33 1 2.1866952802446502e+01 5.5788257627645912e+00 7.7987111144104143e-02
34 1 1.4355497655086142e+00 6.8513725847615659e+00 1.3175495839278608e+00
35 1 6.0376115743661592e-02 8.3111560319566937e+00 2.6953760544584591e+00
36 1 1.3788618815244373e+00 9.5860755657949053e+00 4.1994284631962309e+00
37 1 2.6502521422376870e+00 5.5307012391313126e+00 2.7650246493897992e+00
38 1 4.0188980730227044e+00 6.8992189545653479e+00 4.0164233459047143e+00
39 1 2.7937402004712859e+00 8.2290017446524146e+00 8.5820844159401249e-02
40 1 4.0264414993448145e+00 9.6657884559224758e+00 1.2844130017534203e+00
41 1 2.1906061995760826e+01 5.4703597463895672e+00 5.5775124161568144e+00
42 1 1.3835213684456915e+00 6.8071479186341861e+00 6.8037101428188684e+00
43 1 7.7623664131835968e-02 8.1716238856834646e+00 8.1513609411670558e+00
44 1 1.3287411514015155e+00 9.6147496129625463e+00 9.6083431004346522e+00
45 1 2.8040921551825555e+00 5.4963951904012376e+00 8.1841342428862411e+00
46 1 4.0958042685361784e+00 6.9189991941941820e+00 9.6228262924839498e+00
47 1 2.8339655285394887e+00 8.2003308822183367e+00 5.4948223021042573e+00
48 1 4.1320098403226337e+00 9.6671832416550103e+00 6.7844697076373066e+00
49 1 2.1918502067349628e+01 5.5662917923324597e+00 1.0877213377713641e+01
50 1 1.4356162560363004e+00 6.8384518074742449e+00 1.2405635797055622e+01
51 1 2.1839190912161460e+01 8.1994592315516535e+00 1.3626476007433126e+01
52 1 1.4015979152673277e+00 9.5522948197199113e+00 1.5122355414131956e+01
53 1 2.8309102853884180e+00 5.4096634204522500e+00 1.3783705659080155e+01
54 1 4.0251178303200676e+00 6.8315291016621771e+00 1.5067779812235713e+01
55 1 2.7399199093666935e+00 8.3217424643872082e+00 1.1023738237620366e+01
56 1 4.0749964725438517e+00 9.5514923571001589e+00 1.2412299040837864e+01
57 1 7.6261434547537976e-02 5.4864413011087301e+00 1.6421759146192464e+01
58 1 1.4700584696321837e+00 6.8185637090735405e+00 1.7760517475785313e+01
59 1 7.6019624260813962e-02 8.2889170796222498e+00 1.9228627881114267e+01
60 1 1.4627577263555904e+00 9.6826679154428827e+00 2.0615774700660346e+01
61 1 2.8142902819095355e+00 5.4337293480644213e+00 1.9123299311380205e+01
62 1 4.1472373698629870e+00 6.8982987073309507e+00 2.0499535585756451e+01
63 1 2.7212614546209752e+00 8.3085011532432116e+00 1.6465180153510044e+01
64 1 4.1288921829852541e+00 9.5363509545781593e+00 1.7829179449723576e+01
65 1 4.6869454789839893e-03 1.0886387128049254e+01 9.6388538625341247e-02
66 1 1.3853541200911550e+00 1.2240956776532864e+01 1.4256048402450778e+00
67 1 9.5653142768029137e-02 1.3728724005664191e+01 2.7060863272565330e+00
68 1 1.3085765431455569e+00 1.5116330326783372e+01 4.0522464796913606e+00
69 1 2.7576875785035724e+00 1.0989047835275926e+01 2.8346346186248761e+00
70 1 4.0276780531059755e+00 1.2339669564731723e+01 4.1620444958565299e+00
71 1 2.6775953480949317e+00 1.3688363346356903e+01 2.1849779099690998e+01
72 1 4.1584011727551555e+00 1.4999378577351896e+01 1.3500933416715934e+00
73 1 7.4704526224146445e-02 1.0963060067350005e+01 5.5668243867281779e+00
74 1 1.4242584235477744e+00 1.2422739792022353e+01 6.7808556018097805e+00
75 1 2.1851912581066127e+01 1.3624815250713844e+01 8.3002208588694639e+00
76 1 1.3978889958694887e+00 1.5081139338759771e+01 9.5302336832392953e+00
77 1 2.7768966875454555e+00 1.0932203477569162e+01 8.2686259726531883e+00
78 1 4.1052960657734650e+00 1.2341168972108905e+01 9.6554581464919735e+00
79 1 2.6606990951046763e+00 1.3726501700664702e+01 5.4237469894591737e+00
80 1 4.1748523503627135e+00 1.5079594207225853e+01 6.9531140666735647e+00
81 1 2.1873788664935145e+01 1.1061203828024853e+01 1.1028783407321722e+01
82 1 1.3673270993150537e+00 1.2402381812835927e+01 1.2360244781048223e+01
83 1 3.1024212798276052e-02 1.3793488152541478e+01 1.3623804083282257e+01
84 1 1.4380726407916804e+00 1.5058187955993246e+01 1.5046934123220140e+01
85 1 2.8409553542419967e+00 1.1024838100415275e+01 1.3707857027755917e+01
86 1 4.0977506792849558e+00 1.2415180781174360e+01 1.4999187974442979e+01
87 1 2.7838337513827733e+00 1.3768580924741029e+01 1.1028439275943223e+01
88 1 4.0776823449479664e+00 1.5141152836549210e+01 1.2284740688375134e+01
89 1 2.1909661590096917e+01 1.0952089622440877e+01 1.6461181996726033e+01
90 1 1.2935977331081114e+00 1.2321064560127860e+01 1.7724035138021385e+01
91 1 4.8876145269479809e-02 1.3781125182446852e+01 1.9122836335824037e+01
92 1 1.4118321538533596e+00 1.5146045617678926e+01 2.0662490664574356e+01
93 1 2.8109081124737458e+00 1.0953421297088802e+01 1.9290987741701930e+01
94 1 4.2080218809704721e+00 1.2340410395840117e+01 2.0616814307716776e+01
95 1 2.8249175335346326e+00 1.3705979414393751e+01 1.6525657248219417e+01
96 1 4.1535387132123747e+00 1.5040609851194910e+01 1.7877505453996694e+01
97 1 1.4136957171899819e-02 1.6371669030686661e+01 2.1915476085260934e+01
98 1 1.2858232026795613e+00 1.7819208392643400e+01 1.3567829216285847e+00
99 1 2.1921947488594093e+01 1.9212310070718154e+01 2.6666881320352149e+00
100 1 1.4578287819913687e+00 2.0602935089615002e+01 4.1779812716785543e+00
101 1 2.8215102464527524e+00 1.6469564009384694e+01 2.6501936441809204e+00
102 1 4.1555223648235513e+00 1.7837780170852671e+01 4.1784164444340801e+00
103 1 2.7485820946948687e+00 1.9257698819072836e+01 9.9402058614498356e-02
104 1 4.0833359622735772e+00 2.0500329288004135e+01 1.3494099598907807e+00
105 1 5.0609997973135284e-02 1.6440745786371661e+01 5.5019760218858433e+00
106 1 1.2965466943843342e+00 1.7869199702186798e+01 6.8113914803732998e+00
107 1 2.1875323512080804e+01 1.9267639999716636e+01 8.2393325642241191e+00
108 1 1.3679747884692501e+00 2.0645889753049694e+01 9.5147274872122001e+00
109 1 2.7813808900681787e+00 1.6418496457952919e+01 8.1615319499970163e+00
110 1 4.1481847299934556e+00 1.7796539390172587e+01 9.5635041664987863e+00
111 1 2.8308855530458374e+00 1.9134909668135897e+01 5.4867347315675472e+00
112 1 4.0180276401342701e+00 2.0498798618227386e+01 6.9320587467267130e+00
113 1 5.7849509650535265e-02 1.6464267098010797e+01 1.0913090679198273e+01
114 1 1.3826245165242617e+00 1.7726404305222722e+01 1.2382273726187584e+01
115 1 4.3350136112745630e-02 1.9224259004713268e+01 1.3733017736855039e+01
116 1 1.2858182865249075e+00 2.0515406193810190e+01 1.5096700609619587e+01
117 1 2.7209873532057798e+00 1.6551304645716289e+01 1.3795499071475035e+01
118 1 4.0436265805045073e+00 1.7841967118529908e+01 1.5121068021220692e+01
119 1 2.6694586828601774e+00 1.9157569129420231e+01 1.1011783569385100e+01
120 1 4.1934466186845674e+00 2.0534473530041222e+01 1.2287463742338256e+01
121 1 6.4358400546042915e-02 1.6469896536045134e+01 1.6448217684341152e+01
122 1 1.3223050042855786e+00 1.7738506669729666e+01 1.7727553284179397e+01
123 1 1.5994036112818952e-02 1.9133272054692014e+01 1.9290156595685364e+01
124 1 1.2925704456772296e+00 2.0556542757665419e+01 2.0545056959414190e+01
125 1 2.6886122950571063e+00 1.6502651145000787e+01 1.9223790952416060e+01
126 1 4.1583765370103736e+00 1.7740536715179299e+01 2.0536673683139277e+01
127 1 2.7461166148668466e+00 1.9180394228746046e+01 1.6361023512374548e+01
128 1 4.0520304909801581e+00 2.0655129929660923e+01 1.7756488944950664e+01
129 1 5.5547104664925557e+00 6.4427431812888014e-02 2.1915458751415624e+01
130 1 6.8487317039688520e+00 1.4358753615299840e+00 1.4072122651140426e+00
131 1 5.5516887472858141e+00 2.7936693171664246e+00 2.7804042958881210e+00
132 1 6.9379698212013752e+00 4.1777864266189173e+00 4.0490375375165994e+00
133 1 8.2760948550162485e+00 2.1854536264622908e+01 2.7273212480588045e+00
134 1 9.5768753774306834e+00 1.3115086187950971e+00 4.2008060217271979e+00
135 1 8.1454053356722333e+00 2.6431298829977150e+00 2.1901784160732795e+01
136 1 9.6956739436482433e+00 4.0661640256776881e+00 1.4372138531035465e+00
137 1 5.4189227274040936e+00 1.7275670959675554e-02 5.5759818670358792e+00
138 1 6.8986776469131605e+00 1.4671765950356976e+00 6.8702863298178087e+00
139 1 5.5809669413106846e+00 2.8095594063440008e+00 8.2820996452203861e+00
140 1 6.9330729773822997e+00 4.1395233034523233e+00 9.5687979092753128e+00
141 1 8.2321064880113983e+00 2.1882500079136474e+01 8.2819588247763409e+00
142 1 9.5315407003229726e+00 1.3865145897973181e+00 9.6047047859158212e+00
143 1 8.2608305606955383e+00 2.7942473197330502e+00 5.4062655772127819e+00
144 1 9.6225131923335958e+00 4.0960161764930385e+00 6.8782152871335915e+00
145 1 5.5230969086292996e+00 1.7095917152124371e-02 1.1015177215371743e+01
146 1 6.8593800514409295e+00 1.3636485618258545e+00 1.2297028773089707e+01
147 1 5.4301303339993421e+00 2.7812104212183644e+00 1.3749892270562491e+01
148 1 6.7944715025953197e+00 4.2075924833222222e+00 1.5116055156057879e+01
149 1 8.2326932246419648e+00 6.8235070308993534e-02 1.3708054086660631e+01
150 1 9.5927139740200644e+00 1.3227298800155074e+00 1.5013052096278138e+01
151 1 8.2687741157761838e+00 2.8109721936478085e+00 1.1004159755619193e+01
152 1 9.5712893033391904e+00 4.1283694182438104e+00 1.2352357494734800e+01
153 1 5.5716132166948587e+00 2.1914734842391137e+01 1.6385856530413200e+01
154 1 6.9307615786658019e+00 1.4500206993773737e+00 1.7733628119000379e+01
155 1 5.4239448061678965e+00 2.7694067307198922e+00 1.9252819031126965e+01
156 1 6.8767135013481102e+00 4.0515428392253119e+00 2.0489653315052436e+01
157 1 8.2276445268130374e+00 6.3102081331802284e-02 1.9138463436214426e+01
158 1 9.5125515389745576e+00 1.3812839991586610e+00 2.0504488429627045e+01
159 1 8.1399347440968537e+00 2.7968029196082536e+00 1.6517145321215583e+01
160 1 9.5771921102196469e+00 4.0720402720336564e+00 1.7779399177887392e+01
161 1 5.4564942851656699e+00 5.4996815286232525e+00 5.5640156224954634e-03
162 1 6.8264448362345389e+00 6.8828591958476357e+00 1.4062284883894920e+00
163 1 5.4959557895950075e+00 8.2039089830103737e+00 2.7669305563878273e+00
164 1 6.8737555566428217e+00 9.5655897714761320e+00 4.0738652025328488e+00
165 1 8.2355997758038573e+00 5.5067683478003699e+00 2.7643096877843618e+00
166 1 9.5740926017795704e+00 6.8685297814432502e+00 4.2103789270392840e+00
167 1 8.2120549038087898e+00 8.2950529429179980e+00 2.1853464738261390e+01
168 1 9.6725706507403935e+00 9.6858662311059760e+00 1.3234478031707875e+00
169 1 5.3867202831344390e+00 5.4809016826867598e+00 5.4208424515324554e+00
170 1 6.9497012508570535e+00 6.9349146870235101e+00 6.9475079771860546e+00
171 1 5.5050739315481518e+00 8.2294820733805274e+00 8.2929935698760460e+00
172 1 6.8858447931378040e+00 9.5472365352734485e+00 9.6843822076515718e+00
173 1 8.2143898899931056e+00 5.5390112456618601e+00 8.2266375913976972e+00
174 1 9.5341962486210239e+00 6.8145603694018826e+00 9.6124071537605627e+00
175 1 8.1550504168528555e+00 8.1291975717232958e+00 5.4710782448699868e+00
176 1 9.6499644343718423e+00 9.6203564547485776e+00 6.8202042751614744e+00
177 1 5.5277481878590997e+00 5.4812029266219753e+00 1.1068500270451405e+01
178 1 6.9105813304889567e+00 6.9215012882543512e+00 1.2291584781227757e+01
179 1 5.4147589925697632e+00 8.1663107818213998e+00 1.3697202992869254e+01
180 1 6.8578048239241793e+00 9.5364468695464453e+00 1.5137813954197714e+01
181 1 8.3001362308834459e+00 5.4475009971520487e+00 1.3712362839351259e+01
182 1 9.6163999205025501e+00 6.8998506347862243e+00 1.5011319490893070e+01
183 1 8.1826242122806310e+00 8.2725911991716803e+00 1.0982238462858527e+01
184 1 9.6775141586877904e+00 9.5870966723977471e+00 1.2320997569006771e+01
185 1 5.4456014435061402e+00 5.4305745145309494e+00 1.6483053266952684e+01
186 1 6.8083122003645391e+00 6.9278301041286099e+00 1.7778104679130422e+01
187 1 5.5189719262450296e+00 8.2400868283803455e+00 1.9220741759575780e+01
188 1 6.9344583551263668e+00 9.5315226902938814e+00 2.0496088109175087e+01
189 1 8.1508304442670614e+00 5.3995878041836436e+00 1.9201896204720747e+01
190 1 9.5306712303904533e+00 6.9168085860186972e+00 2.0470647106109372e+01
191 1 8.2013713943469710e+00 8.2210907942777141e+00 1.6396205660135365e+01
192 1 9.5687062439034580e+00 9.5420832871056920e+00 1.7780340621266944e+01
193 1 5.5696742121457197e+00 1.0952035073261966e+01 2.1914372988252147e+01
194 1 6.8776098904868341e+00 1.2372503371349701e+01 1.4031303089855369e+00
195 1 5.4012517934448026e+00 1.3727130515806939e+01 2.7893347199795953e+00
196 1 6.9144886732286901e+00 1.5099531850387869e+01 4.0393396116469118e+00
197 1 8.1431980647793551e+00 1.0933210738621163e+01 2.8276617618931925e+00
198 1 9.5920485057666962e+00 1.2418769781429530e+01 4.1051599906554053e+00
199 1 8.2774736213120246e+00 1.3707775435137927e+01 4.1740452286476770e-02
200 1 9.5609608553334358e+00 1.5159798052727339e+01 1.3242166137473166e+00
201 1 5.3855353657568559e+00 1.1012833157223369e+01 5.5196208926489172e+00
202 1 6.8867552899851354e+00 1.2377158000462664e+01 6.8726278422036975e+00
203 1 5.4073557906157035e+00 1.3744590744476010e+01 8.1277697047561404e+00
204 1 6.7919435757909401e+00 1.5066000681039068e+01 9.5731988760817295e+00
205 1 8.1502430324829032e+00 1.0953991520807978e+01 8.2511734487246677e+00
206 1 9.5730176863064855e+00 1.2381374896657341e+01 9.5437094190756540e+00
207 1 8.1552150544541853e+00 1.3760529968897696e+01 5.5180456259524115e+00
208 1 9.5833991386589510e+00 1.5009178456963541e+01 6.8881117478657963e+00
209 1 5.5342911499852443e+00 1.0901388530641565e+01 1.1006460347386037e+01
210 1 6.8265024172763571e+00 1.2422698722977936e+01 1.2389982937521680e+01
211 1 5.4390462340466792e+00 1.3798355263927562e+01 1.3615796551220928e+01
212 1 6.7923398028956790e+00 1.5030205594229427e+01 1.5128241016673975e+01
213 1 8.2316836061003240e+00 1.0961475081578813e+01 1.3655256667754436e+01
214 1 9.6488184220719209e+00 1.2263096281610318e+01 1.5031293244080970e+01
215 1 8.2877220639149964e+00 1.3700959492893217e+01 1.1043963547319922e+01
216 1 9.6178578208464511e+00 1.5139733929391676e+01 1.2277155654585826e+01
217 1 5.4475443735352940e+00 1.0943941210360137e+01 1.6451739841176405e+01
218 1 6.8498684048955063e+00 1.2404168231516493e+01 1.7758613106382409e+01
219 1 5.5545971829259306e+00 1.3788559258828682e+01 1.9110153807112219e+01
220 1 6.7572530739242369e+00 1.5040375594563905e+01 2.0546273953552308e+01
221 1 8.3205398813497009e+00 1.0882881719410697e+01 1.9251311053045658e+01
222 1 9.5926099907175448e+00 1.2265649704954626e+01 2.0539341061734127e+01
223 1 8.2026302814161820e+00 1.3659464500060428e+01 1.6411772751504774e+01
224 1 9.5815087662405141e+00 1.5174277278982949e+01 1.7815747113796316e+01
225 1 5.5743270024224634e+00 1.6359006414316710e+01 2.1850422051714645e+01
226 1 6.7609381812394531e+00 1.7857163927652472e+01 1.3151215382227590e+00
227 1 5.4995840362586099e+00 1.9254123227121088e+01 2.7085127837317007e+00
228 1 6.8045104985418172e+00 2.0611206717428111e+01 4.1084045586599141e+00
229 1 8.1562920292098600e+00 1.6370389023493939e+01 2.7895835002278848e+00
230 1 9.6696074669757834e+00 1.7902047415656703e+01 4.1152428014969402e+00
231 1 8.1571409132729293e+00 1.9140181482455695e+01 2.1927904777804191e+01
232 1 9.6678964747211218e+00 2.0596164483767051e+01 1.3259163913906649e+00
233 1 5.5354877283114359e+00 1.6439988035064122e+01 5.5808527890388344e+00
234 1 6.8411204274969606e+00 1.7891414269780711e+01 6.7582833262722044e+00
235 1 5.5279442530186351e+00 1.9174745688556982e+01 8.2262518615979676e+00
236 1 6.7951401600731156e+00 2.0652027302745395e+01 9.5374540026762364e+00
237 1 8.2387673408150288e+00 1.6472369124715360e+01 8.2981386854599020e+00
238 1 9.5908583079371219e+00 1.7889953256232189e+01 9.6023043128453800e+00
239 1 8.3177169318845241e+00 1.9238371566746455e+01 5.5667210521968045e+00
240 1 9.6859971064617305e+00 2.0626574231263607e+01 6.7798485093191010e+00
241 1 5.4091857196468700e+00 1.6476148350059411e+01 1.0922841336552393e+01
242 1 6.8324054648452544e+00 1.7758740635324731e+01 1.2392109332612080e+01
243 1 5.5551995407291095e+00 1.9121610925412856e+01 1.3714116987352806e+01
244 1 6.8343775859995182e+00 2.0624128063596157e+01 1.5074823460035097e+01
245 1 8.2726118098296340e+00 1.6466120775315883e+01 1.3806399622803909e+01
246 1 9.5814516151895894e+00 1.7921509173932016e+01 1.5064912716658627e+01
247 1 8.1629837302781620e+00 1.9251466212087479e+01 1.0922943800470632e+01
248 1 9.6106759461670102e+00 2.0595328015978261e+01 1.2279610451630603e+01
249 1 5.3911813871356049e+00 1.6550306668711990e+01 1.6516378028615581e+01
250 1 6.7801160509918947e+00 1.7893568886024632e+01 1.7775601040350324e+01
251 1 5.4337569480776651e+00 1.9249573270076631e+01 1.9246522402471424e+01
252 1 6.9245664687864075e+00 2.0493455401577329e+01 2.0615642235045012e+01
253 1 8.2204147748546408e+00 1.6418076681625475e+01 1.9241910575509781e+01
254 1 9.6665536161916403e+00 1.7788467151512634e+01 2.0497087311332088e+01
255 1 8.3247869436667781e+00 1.9278887997847580e+01 1.6410868229963206e+01
256 1 9.6604078615999320e+00 2.0484063644443275e+01 1.7906484181490733e+01
257 1 1.1023530447053002e+01 2.1876572622952107e+01 2.1896337449399542e+01
258 1 1.2358785970968199e+01 1.3422265328462786e+00 1.4183217631894909e+00
259 1 1.0987072573868799e+01 2.6835557305135982e+00 2.7641719019767956e+00
260 1 1.2242486817029784e+01 4.0355745630606084e+00 4.0454665634213303e+00
261 1 1.3681485542403884e+01 2.1839581947668204e+01 2.8281315047327356e+00
262 1 1.5029726791094451e+01 1.3252027100890116e+00 4.0883534651410507e+00
263 1 1.3798897743145687e+01 2.7125138658296080e+00 2.1923426571240920e+01
264 1 1.5041526454500488e+01 4.2084740070103583e+00 1.3440464449734504e+00
265 1 1.0885307484197929e+01 3.1596478847815329e-02 5.5276209841430965e+00
266 1 1.2314123204839003e+01 1.3133520310899776e+00 6.8372252902367148e+00
267 1 1.0956413642102474e+01 2.8412099606775723e+00 8.2981370651108364e+00
268 1 1.2363856779683992e+01 4.0520085895736511e+00 9.6351079042778061e+00
269 1 1.3762549800456414e+01 2.1852277747738871e+01 8.2023473033404315e+00
270 1 1.5047194559509162e+01 1.3851612645222935e+00 9.6281356436736569e+00
271 1 1.3647027557677671e+01 2.7360818872227428e+00 5.5827335773071791e+00
272 1 1.4984995527845474e+01 4.0874237223658074e+00 6.8222374927712615e+00
273 1 1.0949716604004511e+01 7.3838743104936294e-02 1.0956261007659895e+01
274 1 1.2416290600299199e+01 1.3861829686060478e+00 1.2324598538986928e+01
275 1 1.0919060617531549e+01 2.8068727710643260e+00 1.3739590103600655e+01
276 1 1.2282120213976432e+01 4.0392390986910165e+00 1.5006911265730631e+01
277 1 1.3792564392569862e+01 2.1917878307519214e+01 1.3774811558872191e+01
278 1 1.5160897418551954e+01 1.3163416095588569e+00 1.4988339469962922e+01
279 1 1.3646817217309136e+01 2.7967457411322214e+00 1.0871682635224232e+01
280 1 1.5094651412003570e+01 4.0514783531176093e+00 1.2393007136476047e+01
281 1 1.0964475139285891e+01 9.8159878153534514e-03 1.6411581651380057e+01
282 1 1.2330990700739628e+01 1.2802175205891597e+00 1.7885878929413984e+01
283 1 1.1050099784675227e+01 2.7926795039436731e+00 1.9194174454489570e+01
284 1 1.2408431869888807e+01 4.0139891751598311e+00 2.0599316481397636e+01
285 1 1.3764227183463111e+01 2.1902531247438457e+01 1.9266364338188794e+01
286 1 1.4981863000321470e+01 1.3974990422877276e+00 2.0526329796196119e+01
287 1 1.3736475584752030e+01 2.6924217319100587e+00 1.6394855974017389e+01
288 1 1.5107057077361105e+01 4.1126119641232357e+00 1.7761431137661805e+01
289 1 1.1045834985982461e+01 5.5607773323974721e+00 9.9136810058968461e-03
290 1 1.2380894205507413e+01 6.8456523470107067e+00 1.4313636728741737e+00
291 1 1.1035371249256206e+01 8.2792819398567730e+00 2.6907797678562906e+00
292 1 1.2244572692039597e+01 9.6291756156582622e+00 4.0954765388966852e+00
293 1 1.3789602169022782e+01 5.5562695055093423e+00 2.7489004187990478e+00
294 1 1.5057313830131100e+01 6.8979729081850705e+00 4.1550989391024808e+00
295 1 1.3747206578627601e+01 8.2949348108680674e+00 1.5463717048965349e-02
296 1 1.5085033695968040e+01 9.6009066267214802e+00 1.4488711316038694e+00
297 1 1.0941950226685526e+01 5.5526831719620819e+00 5.4852779127516360e+00
298 1 1.2256742790153865e+01 6.8451713974625195e+00 6.8136142795291743e+00
299 1 1.0974177008932768e+01 8.2971119710670784e+00 8.1623411054440904e+00
300 1 1.2334719924858405e+01 9.6140254503470377e+00 9.6514890623001630e+00
301 1 1.3798945392500274e+01 5.4944215762470154e+00 8.3107736037724766e+00
302 1 1.5049136792469106e+01 6.9082389542635321e+00 9.6502700916635469e+00
303 1 1.3721005796154257e+01 8.1612077437454982e+00 5.4615408591320556e+00
304 1 1.5039995023647844e+01 9.6909007238530158e+00 6.8842994921950922e+00
305 1 1.1050407567352398e+01 5.4435319539268781e+00 1.0954388011717160e+01
306 1 1.2353149465139714e+01 6.8263206366780613e+00 1.2330974925430789e+01
307 1 1.0988461411440227e+01 8.1321071948701160e+00 1.3678712230979434e+01
308 1 1.2239719339942059e+01 9.5940325244003333e+00 1.5103425133016088e+01
309 1 1.3629348092013133e+01 5.4327188804289595e+00 1.3771548364211801e+01
310 1 1.5149881311969917e+01 6.8329216508540727e+00 1.5144669746108244e+01
311 1 1.3666178050606428e+01 8.2676716444626965e+00 1.0977691324731426e+01
312 1 1.5069844815780531e+01 9.6288134552347540e+00 1.2242353135819439e+01
313 1 1.0901088688541671e+01 5.4430646928775914e+00 1.6489012521953921e+01
314 1 1.2380922062672276e+01 6.8915271648372061e+00 1.7877498421312751e+01
315 1 1.0884510312202748e+01 8.1476277816830702e+00 1.9266120232052423e+01
316 1 1.2311042550592227e+01 9.6111992580967023e+00 2.0566825561146679e+01
317 1 1.3736082514267526e+01 5.3996893422455905e+00 1.9249008045273282e+01
318 1 1.5006505465632630e+01 6.8916498923668073e+00 2.0546553419830140e+01
319 1 1.3709202327212427e+01 8.2607887468721479e+00 1.6427100550139127e+01
320 1 1.4991032494270293e+01 9.6903673103443211e+00 1.7828510379881585e+01
321 1 1.1017028928212172e+01 1.0974858966744836e+01 6.3937380533994448e-02
322 1 1.2352598235817545e+01 1.2264226375677440e+01 1.3994563129311610e+00
323 1 1.0903148133887397e+01 1.3775480827003324e+01 2.7783623200945633e+00
324 1 1.2427636727628622e+01 1.5107641157908303e+01 4.0582576194909539e+00
325 1 1.3722177509165055e+01 1.1022954455391980e+01 2.7845276595050152e+00
326 1 1.5050284341200296e+01 1.2370745230120761e+01 4.2002788122602146e+00
327 1 1.3747712008619906e+01 1.3684210280450493e+01 8.2151666076685698e-02
328 1 1.5147349838545633e+01 1.5152861752053434e+01 1.2924432753386603e+00
329 1 1.0926765766728138e+01 1.1026625560532041e+01 5.4392614991769372e+00
330 1 1.2254416187111572e+01 1.2376328202494516e+01 6.9152289912958071e+00
331 1 1.0996953561628075e+01 1.3679718667285002e+01 8.2384046637935100e+00
332 1 1.2243978990289492e+01 1.5094357331150610e+01 9.6688852349430157e+00
333 1 1.3626360647002915e+01 1.0945263879309566e+01 8.1594227435052975e+00
334 1 1.5057826579326649e+01 1.2242276534674977e+01 9.6630775839662277e+00
335 1 1.3709998662068253e+01 1.3697933613112454e+01 5.5046589431272901e+00
336 1 1.5151830640850978e+01 1.5040077144964878e+01 6.8088783944810567e+00
337 1 1.0878498841542434e+01 1.0921879818746659e+01 1.0881842369640953e+01
338 1 1.2247986697434778e+01 1.2350221112442073e+01 1.2276441977480712e+01
339 1 1.0883451544413084e+01 1.3794092948282669e+01 1.3640496778494123e+01
340 1 1.2258641158144796e+01 1.5175960611665440e+01 1.5115218392780326e+01
341 1 1.3755900808333966e+01 1.0981240799164040e+01 1.3624827942824036e+01
342 1 1.5150200448082508e+01 1.2323280800841053e+01 1.5060318564875233e+01
343 1 1.3637811848800878e+01 1.3633393977166255e+01 1.0973049186582060e+01
344 1 1.5095573717913823e+01 1.5085562108549215e+01 1.2362299935590842e+01
345 1 1.1044128692617488e+01 1.0969440968988911e+01 1.6428729535739972e+01
346 1 1.2290989540516087e+01 1.2301044328490985e+01 1.7836136410671809e+01
347 1 1.1027674468233274e+01 1.3698974205986408e+01 1.9103202465461720e+01
348 1 1.2277305900748553e+01 1.4999955446684991e+01 2.0532793682805952e+01
349 1 1.3747625331614190e+01 1.0986742946380975e+01 1.9227475517991646e+01
350 1 1.5072744026184090e+01 1.2261631107390221e+01 2.0525376191007865e+01
351 1 1.3712942095784289e+01 1.3710182993014532e+01 1.6401632277576589e+01
352 1 1.5146885311633373e+01 1.5068487667197408e+01 1.7893066225032136e+01
353 1 1.0921698526066303e+01 1.6541287917174625e+01 2.1859571469280247e+01
354 1 1.2393511498102951e+01 1.7728012290601946e+01 1.3183391327083023e+00
355 1 1.1042710660862038e+01 1.9165070999962257e+01 2.8286458986117573e+00
356 1 1.2425558400124572e+01 2.0626163515378696e+01 4.0924460898449633e+00
357 1 1.3782403700687194e+01 1.6444320867385763e+01 2.6673844390171255e+00
358 1 1.5152216673783833e+01 1.7887224340884380e+01 4.0403380880904605e+00
359 1 1.3784055303395691e+01 1.9198842610620748e+01 4.8718151702435208e-02
360 1 1.5035460204159930e+01 2.0509217296764326e+01 1.4407375629815358e+00
361 1 1.0988642759611720e+01 1.6382441093121731e+01 5.4574740172503411e+00
362 1 1.2411482163644292e+01 1.7817631716342831e+01 6.8227455791224783e+00
363 1 1.0936790772976806e+01 1.9259978840446792e+01 8.2173098055079574e+00
364 1 1.2429345700546945e+01 2.0528565030180310e+01 9.6488210658338183e+00
365 1 1.3667891098538139e+01 1.6506467760395164e+01 8.1299695952954600e+00
366 1 1.5007789196312315e+01 1.7775826381305908e+01 9.6715433929262868e+00
367 1 1.3675249675269319e+01 1.9191755108240162e+01 5.4057089040089483e+00
368 1 1.5095160657203932e+01 2.0485323906788672e+01 6.7836954675646242e+00
369 1 1.1028794479038217e+01 1.6401682057248522e+01 1.0880850742218296e+01
370 1 1.2360039976047055e+01 1.7753275031204137e+01 1.2250238344748759e+01
371 1 1.1034710463305764e+01 1.9174486564190829e+01 1.3783845015214348e+01
372 1 1.2388481293610578e+01 2.0506317805997988e+01 1.4998787259177197e+01
373 1 1.3645021450481394e+01 1.6451816032893436e+01 1.3682299627914521e+01
374 1 1.5148221408633813e+01 1.7817823168610715e+01 1.5092774940088763e+01
375 1 1.3688240448891481e+01 1.9246030067672997e+01 1.1006387958257237e+01
376 1 1.5118979466815043e+01 2.0620443877680472e+01 1.2319396225743422e+01
377 1 1.0892417168247952e+01 1.6516486688829652e+01 1.6422004497112216e+01
378 1 1.2378027523211291e+01 1.7921668181874914e+01 1.7864327347088956e+01
379 1 1.1049937146226252e+01 1.9097720989726895e+01 1.9215793493970683e+01
380 1 1.2259139538437637e+01 2.0640625926164883e+01 2.0658174550606255e+01
381 1 1.3617580715507136e+01 1.6379552270073781e+01 1.9261602207029878e+01
382 1 1.5119202285397922e+01 1.7920306555317204e+01 2.0617426838970484e+01
383 1 1.3729588014904914e+01 1.9202898650741311e+01 1.6354873471941502e+01
384 1 1.5138587940843259e+01 2.0542925357281533e+01 1.7745305639903020e+01
385 1 1.6462266959422546e+01 2.1911192548022353e+01 2.1171590990497549e-02
386 1 1.7727309425344448e+01 1.3040702223150240e+00 1.3790411859637139e+00
387 1 1.6474881483244797e+01 2.6585928318545653e+00 2.7694255750889885e+00
388 1 1.7892219229673422e+01 4.0705817251823859e+00 4.1174911557280423e+00
389 1 1.9276273854984627e+01 4.0591937049153370e-02 2.6834944655916932e+00
390 1 2.0659423534999696e+01 1.3394900087924762e+00 4.1780654881657870e+00
391 1 1.9185553495144696e+01 2.8001035124406992e+00 8.4184534826149834e-02
392 1 2.0646669666782319e+01 4.1741454921308536e+00 1.3356694661800208e+00
393 1 1.6535425932892760e+01 2.1867867954818418e+01 5.4363389953245367e+00
394 1 1.7853245644814319e+01 1.4207112240483899e+00 6.7654422566391075e+00
395 1 1.6406672834404439e+01 2.7159566427319550e+00 8.2958993048721830e+00
396 1 1.7724358471505553e+01 4.1912241160284101e+00 9.5644711116936580e+00
397 1 1.9218364710748567e+01 8.7152157445669648e-02 8.1387697089794777e+00
398 1 2.0575175690893843e+01 1.3155184984099459e+00 9.6379744972026131e+00
399 1 1.9258613665938249e+01 2.6913998887841055e+00 5.5562789142538893e+00
400 1 2.0501607694106287e+01 4.1092394538325019e+00 6.7816315222397581e+00
401 1 1.6414403341443414e+01 2.1912025377587568e+01 1.1007653383008117e+01
402 1 1.7787345023840235e+01 1.3770060650296765e+00 1.2369939042625486e+01
403 1 1.6510047064463645e+01 2.7008576858431987e+00 1.3622019887812089e+01
404 1 1.7771385415374841e+01 4.1224143954276684e+00 1.5157360451552854e+01
405 1 1.9226558973783494e+01 2.1455762093724198e-02 1.3617104485013677e+01
406 1 2.0565732363839199e+01 1.3372553596127033e+00 1.5051308285329947e+01
407 1 1.9286927609100360e+01 2.6748434809939763e+00 1.0886273543551702e+01
408 1 2.0527142832135262e+01 4.1417646684574683e+00 1.2293596716956637e+01
409 1 1.6494064172083991e+01 3.9018373911012538e-02 1.6440538815212459e+01
410 1 1.7890914858561391e+01 1.3358317084238873e+00 1.7848613758714119e+01
411 1 1.6460904594482265e+01 2.6564888245342408e+00 1.9164495153814315e+01
412 1 1.7836602710496820e+01 4.2084364889475303e+00 2.0622855329374481e+01
413 1 1.9191231399222143e+01 2.1876494094513991e+01 1.9149042494021785e+01
414 1 2.0474609804383743e+01 1.3873911624222970e+00 2.0550971045373519e+01
415 1 1.9226758549456822e+01 2.7484425066234226e+00 1.6436256827637713e+01
416 1 2.0536530194991425e+01 4.0213494493041813e+00 1.7920568414115770e+01
417 1 1.6367939457697272e+01 5.3893932179654414e+00 2.1880260583601213e+01
418 1 1.7751212249333488e+01 6.9142615674244450e+00 1.3014009328921312e+00
419 1 1.6420890013394285e+01 8.1290996761967023e+00 2.8284638175412762e+00
420 1 1.7788183078912901e+01 9.6661006825407885e+00 4.2056119682692179e+00
421 1 1.9240540404163596e+01 5.4364483708507416e+00 2.7405790949473117e+00
422 1 2.0622655387803093e+01 6.8951042314101825e+00 4.1787393396461612e+00
423 1 1.9203964848544359e+01 8.2579505210299526e+00 2.1909839244810509e+01
424 1 2.0504406257449414e+01 9.6369730531547830e+00 1.2716514682107605e+00
425 1 1.6509676188259878e+01 5.3857466440796138e+00 5.5076601841263226e+00
426 1 1.7842897770132137e+01 6.7764774841597513e+00 6.8738154583599984e+00
427 1 1.6504469412654668e+01 8.2336483916433387e+00 8.2610021101231474e+00
428 1 1.7865709342541102e+01 9.5387069764770942e+00 9.6828483012826609e+00
429 1 1.9160558289808243e+01 5.5010403912186057e+00 8.1470865776629573e+00
430 1 2.0665406003407821e+01 6.8862032217084757e+00 9.5898821266936363e+00
431 1 1.9208273949258231e+01 8.1318876644585352e+00 5.4323159292127174e+00
432 1 2.0661062811316754e+01 9.5137313040058231e+00 6.7837151788091390e+00
433 1 1.6467515452233542e+01 5.5390944250682246e+00 1.1039174632056845e+01
434 1 1.7896220656568445e+01 6.9074194312809745e+00 1.2309206547149344e+01
435 1 1.6469216230780994e+01 8.2890746236881299e+00 1.3638519168302894e+01
436 1 1.7740259114630934e+01 9.5892420391690028e+00 1.5043893067285710e+01
437 1 1.9095796946005276e+01 5.4876727035378501e+00 1.3685345555284416e+01
438 1 2.0642751908868394e+01 6.8222102051397817e+00 1.5114359212716291e+01
439 1 1.9208665676085662e+01 8.1863833220276341e+00 1.0962122411285200e+01
440 1 2.0539656992157095e+01 9.5450422099949144e+00 1.2257299507581861e+01
441 1 1.6363324265162568e+01 5.4288406244624277e+00 1.6369563857022964e+01
442 1 1.7754101249043106e+01 6.7803589770983006e+00 1.7798634776046953e+01
443 1 1.6400534770201784e+01 8.1273317732644887e+00 1.9101632423543865e+01
444 1 1.7921985723071021e+01 9.5465538967090247e+00 2.0474290520278569e+01
445 1 1.9220251957961622e+01 5.4946282094781020e+00 1.9172820303843363e+01
446 1 2.0612791366735102e+01 6.9427715803110388e+00 2.0545396050478963e+01
447 1 1.9170115165383077e+01 8.2292866695781157e+00 1.6399795219944927e+01
448 1 2.0500919782168086e+01 9.5752612032230751e+00 1.7859378805484393e+01
449 1 1.6355854000983889e+01 1.0896279049535229e+01 6.1621624274116694e-02
450 1 1.7790404058327955e+01 1.2351506182845172e+01 1.2821737370943711e+00
451 1 1.6463054702006705e+01 1.3616297618671773e+01 2.6836016872422865e+00
452 1 1.7813554359707791e+01 1.5086587460300498e+01 4.0382866778992774e+00
453 1 1.9186857339578566e+01 1.1024696700306434e+01 2.7833074831064595e+00
454 1 2.0539940928838618e+01 1.2338903936258639e+01 4.1730255585180860e+00
455 1 1.9147685212515288e+01 1.3638794095676813e+01 9.3801444470186512e-02
456 1 2.0640726469682139e+01 1.5156662569492479e+01 1.3665094522982995e+00
457 1 1.6359970417637690e+01 1.1017192701654627e+01 5.5423315716965780e+00
458 1 1.7917001157722392e+01 1.2246831111872432e+01 6.9179373316594024e+00
459 1 1.6420259624341170e+01 1.3744067942752324e+01 8.3065620592112346e+00
460 1 1.7774298620936001e+01 1.5180510643916314e+01 9.5050947382825743e+00
461 1 1.9117993117145875e+01 1.0964735548223816e+01 8.2702401633086335e+00
462 1 2.0651423786460253e+01 1.2409129289510016e+01 9.6916276683181923e+00
463 1 1.9183321727884938e+01 1.3692013078402470e+01 5.5021900184588919e+00
464 1 2.0604514795402277e+01 1.5162401231034895e+01 6.8737796851537052e+00
465 1 1.6534093589916417e+01 1.0951735673169443e+01 1.1022871687009573e+01
466 1 1.7923588491346603e+01 1.2255428940945638e+01 1.2381123807388763e+01
467 1 1.6533531971776515e+01 1.3789648180869360e+01 1.3785301718101282e+01
468 1 1.7779724431336327e+01 1.5063085180966121e+01 1.5083444339235085e+01
469 1 1.9288984562516390e+01 1.0921712514140037e+01 1.3742849220168308e+01
470 1 2.0618080828291195e+01 1.2269012646381913e+01 1.5155893759304222e+01
471 1 1.9196095804565871e+01 1.3802009175297753e+01 1.1046538231459282e+01
472 1 2.0655612794372971e+01 1.5018388589012591e+01 1.2406604813394512e+01
473 1 1.6525463869623234e+01 1.1058055662669409e+01 1.6482809408265769e+01
474 1 1.7797681412564849e+01 1.2357053417329340e+01 1.7755551419144982e+01
475 1 1.6552137235115950e+01 1.3755193997865398e+01 1.9162961341917747e+01
476 1 1.7907749943246873e+01 1.5124303174954612e+01 2.0532749908791981e+01
477 1 1.9280926901091661e+01 1.0933468374690142e+01 1.9159042204690056e+01
478 1 2.0472069939177839e+01 1.2379856618573326e+01 2.0487725315390033e+01
479 1 1.9104784449327752e+01 1.3741963551256488e+01 1.6546571041378133e+01
480 1 2.0478960258097445e+01 1.5133794353428435e+01 1.7769707098409331e+01
481 1 1.6525146609761155e+01 1.6355328857144084e+01 2.1876029850220302e+01
482 1 1.7919004054209339e+01 1.7839053094966740e+01 1.2974188237097972e+00
483 1 1.6353843871432002e+01 1.9176856442884485e+01 2.7290352882887978e+00
484 1 1.7830535679289518e+01 2.0602284582473999e+01 4.0440200276335956e+00
485 1 1.9158722542634134e+01 1.6363497144303860e+01 2.8414507730854655e+00
486 1 2.0550895062274009e+01 1.7859672022210813e+01 4.0702776428100984e+00
487 1 1.9123493575398012e+01 1.9133756910813453e+01 2.1840238068681206e+01
488 1 2.0603780720226304e+01 2.0664062908333076e+01 1.2893951874194216e+00
489 1 1.6385947998094839e+01 1.6513239365176201e+01 5.5115777926475111e+00
490 1 1.7913534962240419e+01 1.7796917413108833e+01 6.8409874725458462e+00
491 1 1.6410180505043805e+01 1.9255927838634374e+01 8.1639532629744469e+00
492 1 1.7799935177388704e+01 2.0598004607492467e+01 9.6802018276180259e+00
493 1 1.9257615923250448e+01 1.6369892523174581e+01 8.2992658988961381e+00
494 1 2.0624390133141283e+01 1.7818121873494093e+01 9.6082803184428194e+00
495 1 1.9183692647532535e+01 1.9106142465663144e+01 5.4483563847019578e+00
496 1 2.0648741905036353e+01 2.0585852657612424e+01 6.7750113784352752e+00
497 1 1.6463188181247855e+01 1.6476586227598993e+01 1.1030847725975530e+01
498 1 1.7840292152463800e+01 1.7764243759290320e+01 1.2433660687692230e+01
499 1 1.6412152977843974e+01 1.9240122786658045e+01 1.3748295089369272e+01
500 1 1.7908630349649997e+01 2.0619130368522953e+01 1.5059365992159350e+01
501 1 1.9104653484683578e+01 1.6484167561367318e+01 1.3613127068005836e+01
502 1 2.0476605582215793e+01 1.7728607247954631e+01 1.5096451096513400e+01
503 1 1.9252538502291994e+01 1.9109100411833133e+01 1.0932459298252025e+01
504 1 2.0541960900991992e+01 2.0646011276508062e+01 1.2368942215825037e+01
505 1 1.6433850199612341e+01 1.6537301751751446e+01 1.6490326241616469e+01
506 1 1.7858424293772440e+01 1.7866393655394123e+01 1.7832340577557783e+01
507 1 1.6446399706474192e+01 1.9289548324654930e+01 1.9209415403017847e+01
508 1 1.7805214525477936e+01 2.0484840206106540e+01 2.0504576869360122e+01
509 1 1.9291707916971625e+01 1.6545240915415466e+01 1.9095645227380199e+01
510 1 2.0481684030952817e+01 1.7859753092927015e+01 2.0509728323256596e+01
511 1 1.9227780603717793e+01 1.9137014399611161e+01 1.6432268530303880e+01
512 1 2.0531302238989280e+01 2.0515421729817497e+01 1.7878997884683699e+01
