NaCl 8x8x8 (4096) rocksalt a=5.64, per-atom rand disp |d| in [0.05,0.10] A, seed=0

4096 atoms
2 atom types

0.0 45.12 xlo xhi
0.0 45.12 ylo yhi
0.0 45.12 zlo zhi

Masses

1 22.98976928 # Na
2 35.45 # Cl

Atoms # atomic

1 1 0.01877829356489898 45.10026962903062 0.09564959347921294
2 2 2.8298917959690515 45.06948783385581 0.034097431000619224
3 1 0.061141703853625634 2.864406550436335 2.787003397323672
4 2 2.749534837933548 2.7852928790766684 2.8223012426285536
5 1 2.7756052262259883 45.115822332104216 2.796210235473353
6 2 45.05539430803553 45.07198170726918 2.7920938119944267
7 1 2.8461589715730793 2.8862513472300297 45.11183166870047
8 2 0.04972797352533199 2.7957924131707466 0.012792060553540933
9 1 0.03913027642597193 0.004071774889236533 5.607798238679525
10 2 2.7395315794489066 45.0800396439269 5.659223463143235
11 1 45.05303573410298 2.806126152397755 8.449439189908409
12 2 2.8634434312787382 2.837242497860782 8.488545319219872
13 1 2.7578311101905655 45.10767576763272 8.534543823732188
14 2 0.05729431454958773 45.071696938378594 8.518080498208155
15 1 2.887358694285281 2.859103259374099 5.653235538475999
16 2 45.10829351833873 2.874370984213977 5.713099905359686
17 1 0.04422204180077157 0.032279889021440196 11.288772083468894
18 2 2.747796660536496 45.119733842318496 11.319227800780553
19 1 45.03446047379103 2.846233750988108 14.128540388566508
20 2 2.863163162744819 2.746570202160562 14.058966346716511
21 1 2.8016934130124094 45.07093182660413 14.172959023256098
22 2 45.07525433168671 0.0296826930347209 14.076669185215964
23 1 2.8571113442212894 2.850944875497346 11.294843681577223
24 2 45.06258567241689 2.821355659258988 11.29781402627964
25 1 0.033451553258985744 45.09941161204521 16.980708608402395
26 2 2.767035109705062 45.09346490661142 16.95750655745392
27 1 0.001229695238764417 2.870195739691568 19.74472577674903
28 2 2.7807338131157358 2.7965862009977878 19.67233489061866
29 1 2.7449219123425497 0.03704376917582965 19.77415003140515
30 2 0.04775030816186308 45.09216607037682 19.802303388738647
31 1 2.8070835034543857 2.890760991310809 16.900548656924997
32 2 45.07671565312938 2.8347002614176593 16.980702633997407
33 1 0.00895390646891137 45.08743814602208 22.485413406338342
34 2 2.767162275554539 0.018951291335253275 22.597312472539624
35 1 45.11118324686855 2.7623449696259326 25.42685118974409
36 2 2.7699635750553124 2.7921340620469444 25.40426871303651
37 1 2.7702008813315935 0.008550959230927987 25.36712738499481
38 2 0.04005927240041153 45.092249666406495 25.454090208830912
39 1 2.8555832726097856 2.781125945665211 22.632839577631717
40 2 0.04065862978175908 2.8672459818187956 22.625228175856915
41 1 0.050434770465040954 0.054052248797232944 28.204840786468573
42 2 2.736061572888901 45.112055171688 28.154728741005037
43 1 45.07187042009715 2.828743135631943 31.00076668093418
44 2 2.7608011256195155 2.760042509394217 31.035430103422303
45 1 2.8404149685097053 0.0752719237263031 31.019208001851275
46 2 0.041458101138595195 0.05580055521720045 31.065768730601775
47 1 2.7511023002603348 2.8557896850954503 28.209892613499598
48 2 0.04974444367409201 2.863576568466747 28.24492998847549
49 1 0.015988567843267205 45.102034269548525 33.74481192428686
50 2 2.815952939478466 45.09013487985929 33.88013678212007
51 1 45.096868015777225 2.8266868926290534 36.59194130498962
52 2 2.7931688044693006 2.8193939831232764 36.58194939605874
53 1 2.839572381401772 45.11309547928405 36.58281839320965
54 2 45.03849262716688 0.01743681031244365 36.64988618096211
55 1 2.7948964635660998 2.80881467500006 33.92603631343573
56 2 45.117198824673785 2.8248721088532958 33.75635600853819
57 1 0.07127777281791328 0.03969826332824383 39.52616459514319
58 2 2.8231301680642313 0.0601871022065758 39.50435618659196
59 1 0.02416539052245312 2.814002172563893 42.24191501587874
60 2 2.8528386186483945 2.7582406248830673 42.29234178398134
61 1 2.8070696963330084 45.0540683833321 42.33876281967877
62 2 45.09628350630677 45.068280335786966 42.361542662158726
63 1 2.7935467148636115 2.897097564509087 39.49950807851751
64 2 45.10776804209723 2.769861873413437 39.44627604974627
65 1 0.07350155642277285 5.636577684905389 45.10085246270036
66 2 2.8954333180118503 5.5811201014578184 45.09311543121051
67 1 45.07465611561991 8.51625794156093 2.756335065864617
68 2 2.798873540673327 8.404717742525511 2.845119207981526
69 1 2.902113842853488 5.591475976254016 2.8366379056898827
70 2 45.06773390800594 5.620922984786387 2.8757152572465574
71 1 2.8234899223090153 8.519404298738381 45.09975962090509
72 2 0.05691086149038157 8.440825945402462 0.055492065927591996
73 1 45.119367389587076 5.59076937149748 5.56388905483709
74 2 2.892843118801652 5.638162430572844 5.592088031963097
75 1 45.06612138421543 8.51632409451863 8.418464790300316
76 2 2.8863134280126963 8.508860782282207 8.452574423639957
77 1 2.7872920344758243 5.5704026109255995 8.411516923805092
78 2 45.08747396206181 5.6665922843101395 8.495121635528928
79 1 2.7778253400301995 8.420325159397102 5.580622461795647
80 2 45.104851900032116 8.411180273012848 5.622047746148164
81 1 0.05468994981451966 5.625423248662497 11.316037176305873
82 2 2.7941626528879153 5.733034458548082 11.290526768580518
83 1 45.11061618297822 8.52269983324362 14.092029407700629
84 2 2.750439625124595 8.471500709866534 14.097787972330362
85 1 2.882122856360492 5.586306655193742 14.146881893694294
86 2 0.07588520090161757 5.58058320121779 14.114526914556537
87 1 2.7994721480121743 8.517964835995071 11.262600735882716
88 2 45.088297505198966 8.385421252903981 11.255781225182657
89 1 45.1196617554581 5.6841966141002755 16.884858264505883
90 2 2.8100876853630896 5.5644205787499255 16.87585241730524
91 1 0.07489404746037215 8.488297664248138 19.718763390394113
92 2 2.7502569915263715 8.409125002274203 19.73886885829289
93 1 2.821599953488466 5.605706358037597 19.68072587390427
94 2 0.06921115291138676 5.661978447172873 19.72177399026885
95 1 2.815860943172647 8.450067322281846 16.864927071373213
96 2 0.005093777334661695 8.412852942176936 16.875841519327334
97 1 45.094599236930826 5.669052185781845 22.51356220281057
98 2 2.744407802722821 5.6737226866933295 22.59975816787888
99 1 45.070508442766254 8.48902592390656 25.364948549619463
100 2 2.832375024644771 8.408208364649935 25.41420961491677
101 1 2.8979820181254263 5.6812880838641275 25.41618545855329
102 2 45.027120645773266 5.646417114813674 25.37937349623644
103 1 2.7975551955540205 8.363749526412738 22.56845082629005
104 2 0.044628219790352947 8.431434363460008 22.509826599692605
105 1 0.055752702768073474 5.589886551899269 28.246703605256883
106 2 2.8357471626679955 5.568367426346407 28.174173811100008
107 1 45.06561407956995 8.499906804863794 31.040566401207748
108 2 2.7916583689008716 8.403895691428 31.035357731608563
109 1 2.896904436676838 5.630855805372467 31.053605229892018
110 2 45.05761934666433 5.6512093268001475 30.971677908651838
111 1 2.8342654154048046 8.386753587607188 28.231252817436857
112 2 45.08490575082998 8.514733810519983 28.14805897659564
113 1 0.011732105596171742 5.6007211469618055 33.88354861200486
114 2 2.769243563464911 5.6090362909606615 33.84702157723893
115 1 0.09318075434525493 8.477716208280414 36.644208621048605
116 2 2.7388179416284895 8.44910368343329 36.65886768098262
117 1 2.863177785731167 5.655889321968973 36.62094636872703
118 2 0.0713308827991111 5.626097940717947 36.62904811284893
119 1 2.909633637467068 8.456976050120977 33.81767078546663
120 2 0.01513119261752102 8.518432328955177 33.90869892133693
121 1 45.08953817172979 5.684267956008707 39.500973738184335
122 2 2.8015273866050237 5.600119344447882 39.432794984504284
123 1 0.00951791913765049 8.410009362988013 42.24099448254403
124 2 2.890061531241107 8.491484755205505 42.265924047523804
125 1 2.8397877716434996 5.676850479522315 42.27050362410243
126 2 45.09401841017438 5.680595298324105 42.33096215841949
127 1 2.830064198197157 8.511605188504173 39.431689308475526
128 2 45.04226081716696 8.414458893325861 39.4864405612719
129 1 45.07050648321538 11.249709156392031 45.059383260381466
130 2 2.783355335979775 11.220653835538535 0.021703808993574863
131 1 0.07461240731682188 14.054902967743747 2.8005450072627687
132 2 2.7643382065467166 14.150892836022441 2.828531395774663
133 1 2.865267681971244 11.24889297424088 2.8302936215649033
134 2 0.04008432288563746 11.247458828692512 2.87268248528105
135 1 2.7950722098791454 14.13671619441968 45.09674405579373
136 2 0.04846029785347607 14.040933344102644 0.06063458822204155
137 1 45.06480724584267 11.30272449792142 5.647651734761042
138 2 2.8433861434442833 11.273168418397162 5.576959358140293
139 1 45.05577421865232 14.115523887951595 8.422779965199526
140 2 2.850885894354945 14.140735818313557 8.454071264111157
141 1 2.762467550499909 11.333458634915063 8.50182923065836
142 2 45.107440976485165 11.368498757824517 8.445355397920505
143 1 2.76483232666122 14.092437757853494 5.692291396642623
144 2 45.09537895053121 14.15124650140871 5.6164538533037165
145 1 0.04313250190731648 11.304605486454928 11.273037812946397
146 2 2.8616396969120146 11.222203367942006 11.332315735713388
147 1 45.11390204989543 14.048060084418099 14.171735818830253
148 2 2.8537736878904325 14.124529535625355 14.163714200241
149 1 2.8513878347483606 11.317277248110896 14.084320578153688
150 2 0.014097325449413904 11.354504950014801 14.097651997592413
151 1 2.838246855035344 14.125776404883913 11.331070944923594
152 2 45.113635516404656 14.07808960071157 11.2281167314433
153 1 45.076366327738924 11.337369628863222 16.915864248947358
154 2 2.8392113511753063 11.24832798727186 16.872684295038894
155 1 45.08102532479238 14.142598214838175 19.779680029804823
156 2 2.8463591683299585 14.036319037854916 19.729616120639278
157 1 2.8126190447294825 11.27144872133881 19.677878964372606
158 2 45.071219485418226 11.269190670745086 19.826221998907492
159 1 2.828705383967254 14.175868099643115 16.89867796077899
160 2 45.11390888772627 14.006003605532527 16.931168676882827
161 1 0.028519530531653296 11.371942934644439 22.534625641923668
162 2 2.825972097164999 11.235249118377741 22.485391275686016
163 1 45.09436013169306 14.087595543541429 25.42873490996368
164 2 2.820170291758917 14.039128635604964 25.390924487615198
165 1 2.8342288053760547 11.235775546423609 25.454765580840373
166 2 45.038311002954394 11.270762169757965 25.40877041426503
167 1 2.7814249781062843 14.110411710011762 22.597262526867585
168 2 0.012259139398532943 14.054328369506264 22.54032265859891
169 1 0.08422458392373244 11.300390402099307 28.1993261683847
170 2 2.846127484175313 11.32269984051824 28.158045355152094
171 1 45.09230288985509 14.113630488996554 30.968119652960382
172 2 2.8119641894827687 14.17815159045604 30.961722546122928
173 1 2.857657599681104 11.31673273889136 30.986509957281708
174 2 45.109216751813534 11.306203789610242 30.961820261530942
175 1 2.7650116185518483 14.082383688642587 28.254847221604276
176 2 45.10402555130142 14.157067270653986 28.209059003084594
177 1 45.11589584222573 11.337986584749197 33.86505824730155
178 2 2.839239171758115 11.262748186180538 33.93450536301348
179 1 0.031708638341644 14.09205503208146 36.598396763409845
180 2 2.835122757545122 14.053622650208725 36.59042035845627
181 1 2.8058278083303323 11.294289954871287 36.725110054936124
182 2 0.01194868290584722 11.314097396029775 36.6081409486036
183 1 2.8180440681446557 14.110782307949233 33.914848282287636
184 2 0.009135659197284016 14.163292682283602 33.80031220258293
185 1 0.022011550309574416 11.305511181728365 39.40314813748902
186 2 2.827973389068934 11.26544835919402 39.393511720128686
187 1 0.06644311454536708 14.074913553668942 42.240906661605244
188 2 2.797781408872706 14.108138032781849 42.38879442762514
189 1 2.8116452694051652 11.303785699887447 42.369159670498085
190 2 0.03145695969609489 11.343000180231037 42.271906032232735
191 1 2.8640126966497506 14.09669063960447 39.54132906708957
192 2 45.076904304990684 14.066523578556271 39.5344829329837
193 1 45.08584693604629 16.85747777667332 0.013511230746692972
194 2 2.7946693022356577 16.968932746431875 45.074108370885675
195 1 45.08221711637239 19.827045491103362 2.793795724387106
196 2 2.7753311900315785 19.691650861050594 2.843684603953191
197 1 2.775964222637911 16.94761605026678 2.754868188913804
198 2 45.08174845264667 16.922502349246496 2.73369692222773
199 1 2.8693945690438327 19.73859554994367 45.04150987680946
200 2 45.05835920252937 19.676463937587553 0.0020711024118099486
201 1 45.08104514110447 16.874039325281093 5.632213745445364
202 2 2.9111560307926934 16.931108439905383 5.670535515544346
203 1 0.008867136817855854 19.77263851056861 8.404013522899703
204 2 2.7365858867686415 19.79063819484293 8.456528516216432
205 1 2.8027328288750257 16.860113529997385 8.436761964575673
206 2 45.098921182565576 16.854061586843144 8.427477530174352
207 1 2.8334300716392025 19.783964131793187 5.691206477735531
208 2 0.006228059675104148 19.79750848829632 5.69844794518409
209 1 45.08345700082963 16.830369099808614 11.281630480767697
210 2 2.743082502040108 16.906035539992146 11.30654342203627
211 1 45.07416099999568 19.74104247582008 14.140027048584123
212 2 2.8393153056250786 19.767907206554664 14.148446373151884
213 1 2.8985381468539586 16.926862516819142 14.155721163806191
214 2 45.11347214626335 16.864438932775442 14.132026341604176
215 1 2.7747654799552155 19.69720588448266 11.234621537293398
216 2 45.05962155034391 19.742775040409988 11.246756288567042
217 1 45.11525073581053 16.984196338723685 16.896933080444555
218 2 2.7880945449873598 17.00028674207865 16.952158375465633
219 1 0.06656323936865838 19.71578220254453 19.790991766742565
220 2 2.769167748475874 19.68992092280152 19.784170542922674
221 1 2.8078889310739528 16.93552647410965 19.788407678767307
222 2 45.07446836550217 16.899688021118642 19.770247611303386
223 1 2.8136192805974676 19.79106618424077 16.875576109569778
224 2 0.057782277601325566 19.713744862491247 16.944478897229533
225 1 0.013851080459795101 16.8689653012294 22.515067215482237
226 2 2.899258703088805 16.93660878188024 22.566023876026293
227 1 45.11647230934959 19.76853725592757 25.287480138585995
228 2 2.7653358002949893 19.81137932773754 25.388277390090803
229 1 2.845373654244623 16.901926504398386 25.421082580147086
230 2 0.03166430633931408 16.964133414689364 25.430322098281014
231 1 2.797223262220927 19.68668187923632 22.52928454865626
232 2 0.03993083921256527 19.7718532195056 22.551504037308412
233 1 45.09719428879955 16.998363902455278 28.18726878254235
234 2 2.781573481919893 16.957429320836255 28.214112889709895
235 1 45.03387619913055 19.729280810487506 31.024917231129304
236 2 2.851694972900799 19.75002069530833 30.978129970105588
237 1 2.798978746259071 16.973534238627554 30.971331820899984
238 2 45.1016911573663 16.981640665324104 30.973398070433575
239 1 2.8068740756214 19.66370509177055 28.22031895010029
240 2 0.05355641247221926 19.775465709886372 28.25933762540284
241 1 0.04611954989283041 16.955843916277278 33.88959811861795
242 2 2.801641448898561 17.00161350403848 33.81606032095083
243 1 45.068570297173764 19.769886184004825 36.72508767989106
244 2 2.740143314291084 19.7315472418757 36.60299113324781
245 1 2.8005134012888595 16.922360049330003 36.596417004722774
246 2 45.10681709468806 16.85039634895926 36.63302073798477
247 1 2.792539376536737 19.715479966969166 33.80017955654353
248 2 0.03565075181592065 19.75488356156395 33.783938346268684
249 1 45.08435622499559 16.879960023887058 39.43873539144189
250 2 2.7743910273477432 16.943779908635733 39.467521496782176
251 1 0.020630636105990387 19.763213354314402 42.36061385839756
252 2 2.784232849421419 19.77426403294501 42.32500556513767
253 1 2.8389094606688445 16.998651401604857 42.30676367955401
254 2 0.03428297491932758 16.889183593754307 42.34734040741107
255 1 2.8271867742235446 19.72067835641841 39.57065321707022
256 2 45.05809587273089 19.741799715734192 39.4399328837702
257 1 45.057530495773484 22.603919016716183 0.061042553118417955
258 2 2.833414768892579 22.47064033086256 0.03815771761885138
259 1 45.097607401273535 25.30223398123649 2.858570957298564
260 2 2.8349509353355917 25.352292895917515 2.8856751603849613
261 1 2.773225878052467 22.49298784664397 2.7753702297044485
262 2 0.07154159704740651 22.55114507854761 2.801265813214981
263 1 2.814363989477817 25.325903385751797 45.05741192904669
264 2 45.09030262368326 25.41278838674211 0.0472615879438194
265 1 45.048308817364045 22.576255006272902 5.69355692128203
266 2 2.7712663826797237 22.537359053538562 5.593234545439882
267 1 45.03343466203282 25.38683005322446 8.410641255875062
268 2 2.8680871800830094 25.377758275897076 8.491439029317778
269 1 2.7950742093223333 22.505847632017183 8.452267424853881
270 2 45.11958708996309 22.501663887416782 8.495256395523047
271 1 2.8508962622107865 25.386541921198354 5.710909226554604
272 2 45.07672246444096 25.415629827761297 5.612026026238865
273 1 0.010658433487072145 22.52229817778663 11.33065632480718
274 2 2.825052512514976 22.594222243256215 11.24365793188293
275 1 45.09833569669527 25.340818195962058 14.076648845475667
276 2 2.7376907888139232 25.365675006779238 14.097950362518429
277 1 2.813926160439642 22.477672953061074 14.127775874545287
278 2 0.043060433807822485 22.51562849505978 14.100043700206621
279 1 2.80635764877589 25.4662613975424 11.268238547533976
280 2 45.11919315999689 25.32895207468379 11.281117889890421
281 1 45.06860718343613 22.588749256696193 16.91424579563136
282 2 2.822728178026149 22.49900094077701 16.975014571555416
283 1 0.025538245875471634 25.411780106746104 19.822164365990712
284 2 2.817080033345439 25.446906654251066 19.733115435675774
285 1 2.8735905412236287 22.609680948058166 19.775980900555194
286 2 0.05451088363430883 22.534830709985666 19.743389645112316
287 1 2.8376087514843777 25.437494807182365 16.892291085507285
288 2 45.058332617894244 25.36347170932103 16.92307045616485
289 1 0.012448220544441274 22.566560557811165 22.64414605612263
290 2 2.9020263720733266 22.55585956830001 22.520539669920957
291 1 45.05895019154078 25.31713369377717 25.34019522790664
292 2 2.7378190085733136 25.35590768965009 25.35779731731807
293 1 2.805624240897703 22.540645127842396 25.43114672308277
294 2 45.075053507020115 22.52294242731388 25.42579105304947
295 1 2.7976831591128515 25.40052818071244 22.62347860531102
296 2 0.06928937220414418 25.421077848480497 22.52774337392962
297 1 0.039408319846629465 22.570145458368167 28.170823330779598
298 2 2.8150349529955716 22.51989588077336 28.16834297230805
299 1 45.0793363961872 25.365316085660318 31.048842667213904
300 2 2.785810356527473 25.4283850489385 31.019788047347163
301 1 2.7787026963641974 22.638891482883256 31.054320993647465
302 2 45.061400423025226 22.594836002159056 30.984047090630945
303 1 2.797992386007105 25.462644348969356 28.162908739085545
304 2 0.03301147588432329 25.402459067676915 28.153478468448135
305 1 45.076683438895444 22.58586278729994 33.787279498798156
306 2 2.7960991791255703 22.64838461579904 33.87500765478922
307 1 45.06462161979121 25.390503169649662 36.623169889662655
308 2 2.753387090076318 25.31805399781094 36.67572997328352
309 1 2.8176170425734544 22.560460407765053 36.56284570224833
310 2 45.11126149974044 22.510724125568014 36.61598699199981
311 1 2.814118049011429 25.33072249348995 33.86383985088511
312 2 0.055442536171666244 25.390228999959163 33.81674953004814
313 1 45.11017259408919 22.503632977268413 39.46631567962197
314 2 2.8563250585090096 22.602201553347804 39.406124410798824
315 1 0.009235689244033824 25.415702424667636 42.35418591340328
316 2 2.778039552091389 25.328255587355557 42.30325817767509
317 1 2.7268556759468736 22.543107486391705 42.291380121900495
318 2 45.09677957030913 22.47993282144545 42.28758702146278
319 1 2.7869007721107484 25.412284092304244 39.44085440399794
320 2 45.08971539885572 25.35501378895551 39.540878238382355
321 1 45.051325719556466 28.190811842531904 0.020490172248746077
322 2 2.803243429422255 28.129258890913224 0.015130891099556234
323 1 0.013936386490210515 31.00880370861499 2.7719929022282366
324 2 2.764612394372556 30.996537322893897 2.754527749686942
325 1 2.749379498652673 28.17170709717303 2.817729175724071
326 2 45.048495615087006 28.189342900915893 2.831797245956992
327 1 2.8465014942358384 31.085141900800007 0.021630339782470188
328 2 45.095412763704026 30.97348173089177 45.118346139393225
329 1 0.0030937058971473733 28.14964878715985 5.651788848208181
330 2 2.7598936560477862 28.23155790343927 5.614488593916881
331 1 0.012344040103734199 30.965861392023225 8.446382485253475
332 2 2.814420771729649 30.96650124497488 8.530674812021962
333 1 2.7936897286676756 28.267626352399162 8.427677736582647
334 2 45.10979957282449 28.252512260540183 8.473476314454258
335 1 2.830948570291171 31.035160815318363 5.562118527831906
336 2 45.08902797954245 30.943956385032575 5.6556956620639935
337 1 45.055525072693456 28.194778091142005 11.270839247197616
338 2 2.8158139503049577 28.196000779770095 11.204914537461965
339 1 45.06687038053797 30.986511476011298 14.154013542010869
340 2 2.835090342753688 31.04367253263002 14.155655570628323
341 1 2.7615657176536694 28.225265323252028 14.046736021550977
342 2 45.108545287361586 28.216590749049917 14.155309775944371
343 1 2.7808051591738914 31.015249692400218 11.337939847501843
344 2 45.025690921334515 31.042922774359287 11.260485118882887
345 1 45.044888838180235 28.212491407840606 16.970681442138016
346 2 2.7634553623242297 28.223557055294275 16.93074788488259
347 1 45.08084348522609 31.068981786215602 19.774366510478377
348 2 2.774952373298616 30.989269092883045 19.780377648821712
349 1 2.799921328293158 28.125443179066828 19.78250721583848
350 2 0.00030970195719816546 28.267256724345472 19.752607098884877
351 1 2.823972925630578 31.079793851970468 16.91642490557615
352 2 45.069273185239986 31.032215056612856 16.980529811234828
353 1 45.07032328183591 28.16127469765382 22.579176949488165
354 2 2.7310544486973893 28.1696032509082 22.58212922333924
355 1 45.10384781251475 30.97522503279976 25.433008348036413
356 2 2.7727840378780555 31.002480969925656 25.36752326288259
357 1 2.837760643431823 28.121069240832043 25.36270488457411
358 2 0.04068830126908399 28.138660014504666 25.446008903650558
359 1 2.773500966413952 31.028621152943174 22.532548163440314
360 2 45.06661596289236 31.054035068273283 22.52832615441172
361 1 0.017090183729183774 28.126595411224248 28.13553583189421
362 2 2.847614633509468 28.140150805980042 28.22127811861374
363 1 0.028862871491227546 31.108284672263164 30.994509401728592
364 2 2.8584575170106206 31.08322832796171 31.078303932208975
365 1 2.8327118617373532 28.209742299091115 31.081803961182622
366 2 0.06852386219887224 28.1764662024387 31.04835316726628
367 1 2.8709078394415415 31.026111676889133 28.212965658538803
368 2 0.03829779424430463 31.093595444347837 28.217176422433425
369 1 0.01590950980832069 28.265181517589593 33.85487600597809
370 2 2.8373364807730623 28.231497975966604 33.89195202661065
371 1 0.09207281973781115 31.048304878449873 36.67559373805496
372 2 2.751360891602131 31.036383502783544 36.60181905899219
373 1 2.7359749230111565 28.25337593504368 36.65174738271725
374 2 0.022384611887084266 28.170279449761107 36.71694185680436
375 1 2.827111920751556 31.07875288065422 33.873312810553394
376 2 0.01840188862365247 30.966711894984087 33.843508637264165
377 1 0.02645120023319737 28.22228701779 39.441806463090224
378 2 2.8728202655473782 28.18898423323177 39.521984205650554
379 1 45.07766598628154 31.058714593480662 42.25165089713857
380 2 2.837268711272691 30.98021400171229 42.26187700223296
381 1 2.801869470347449 28.195085539976272 42.24430049525236
382 2 0.044343380180366175 28.24864755745025 42.277601988313045
383 1 2.7760495507217224 30.999399842242003 39.510185132016026
384 2 0.0514682346009667 30.995286723967567 39.55382832169767
385 1 45.05071763169421 33.79924562631611 0.031572272329938755
386 2 2.81753913964963 33.824882162208965 45.05554602320524
387 1 0.02967883318222223 36.67431384369216 2.7429340849272563
388 2 2.9043202428275854 36.65798250240749 2.859164434707742
389 1 2.8666074834398474 33.80351617661963 2.855185856253554
390 2 0.032827750175049956 33.876555818766754 2.8985324581738654
391 1 2.852376929129179 36.632399343393516 0.08839089894555345
392 2 45.07131204346736 36.63965428429565 45.077592768588396
393 1 45.115932405559434 33.882837630297566 5.691370434704871
394 2 2.8600398130385933 33.787359250329644 5.592176844950223
395 1 45.09521058134394 36.69915868347156 8.422744153178341
396 2 2.873199797921237 36.6579942795573 8.470587396296557
397 1 2.8785212710401367 33.821598986314186 8.524328429557999
398 2 45.06876629798307 33.81001978246768 8.402625362920285
399 1 2.7827773101964213 36.68905324829106 5.6767714599546855
400 2 0.015525036030274024 36.67351677361669 5.580621218910405
401 1 45.083160409799056 33.84843752995984 11.317421966734411
402 2 2.8041399118801418 33.78474719391177 11.213217132401166
403 1 45.085336381400545 36.74044158772722 14.089420427595432
404 2 2.7625404066856056 36.62626025299838 14.073231393836336
405 1 2.8334896461561123 33.806479899335976 14.054802847768006
406 2 45.10818278614191 33.869456793321916 14.145067521808318
407 1 2.8497043318202357 36.635315439966924 11.188540959078596
408 2 45.08267690615945 36.67327812417341 11.21766513632296
409 1 0.024610216519248104 33.78252442201759 16.863285468238544
410 2 2.8780447807619853 33.85134096299158 16.99104575368401
411 1 45.08760502411717 36.69899943265366 19.771354319169347
412 2 2.754159540355506 36.6580595062298 19.77390339556315
413 1 2.8800995531550875 33.805910991978756 19.72201855184874
414 2 45.082928466853275 33.84586898893833 19.688984535955885
415 1 2.783826789287361 36.69987343576016 16.919267311411232
416 2 45.10905712106729 36.65681098093889 17.00255933859848
417 1 0.024698067896048094 33.821494333875805 22.599766205627233
418 2 2.8135319412958513 33.89388294267809 22.51726828245498
419 1 45.05842431506037 36.71265021708412 25.329518125572605
420 2 2.7861579666857206 36.698888818344464 25.329666111617872
421 1 2.7629719902801244 33.86190123203957 25.301248553318825
422 2 45.07286489184176 33.81707305998683 25.295645834468672
423 1 2.75087655739747 36.701191891525404 22.578091582434936
424 2 45.08578373694884 36.67915702412048 22.61496817214133
425 1 45.09129476686827 33.841371130265024 28.24424473624082
426 2 2.8760624369713526 33.91461280275499 28.181639753073394
427 1 45.090654245851134 36.702048406836234 31.04404125669218
428 2 2.817499072901677 36.63741267899653 30.935165699398766
429 1 2.8408216190370537 33.74762024232002 31.00239057310183
430 2 0.050680275259772145 33.90193664300376 31.074307755363982
431 1 2.875715410192858 36.688786343630866 28.181566800110545
432 2 45.102553786543325 36.70963622024059 28.185857872973326
433 1 45.1189023617208 33.883394341509565 33.88265960694302
434 2 2.816872797354623 33.85384911115723 33.74640438926913
435 1 45.03641564786166 36.626389616966165 36.65947916301368
436 2 2.808177448740866 36.66556878866935 36.74017842346438
437 1 2.8918160138168756 33.887745355897046 36.66028246835671
438 2 45.11415976679053 33.88188694269568 36.62632378231937
439 1 2.810840618507124 36.58007740365772 33.84635497051654
440 2 0.0067508560291258774 36.71219815279415 33.90791448374137
441 1 0.014020410690830286 33.87430246555235 39.51358869883689
442 2 2.8297112989428777 33.85149701317791 39.420373260487274
443 1 0.01690398549105681 36.65973124315642 42.21087305478447
444 2 2.80061835862902 36.70301587579164 42.244343400202965
445 1 2.886698620102666 33.86449315971901 42.2882182940213
446 2 45.113191235460064 33.879702704591345 42.23152383631989
447 1 2.883121782137932 36.634840529252216 39.456329408576465
448 2 0.06072984724444222 36.69930292231633 39.54593457742525
449 1 0.03566200286404854 39.49283295943513 45.076482563375336
450 2 2.7520468141334455 39.50851829285366 45.117530643290955
451 1 45.0517774131495 42.33470997253963 2.8775331280895844
452 2 2.8991360867842686 42.244983476616106 2.8435645229540203
453 1 2.763198855585616 39.52514227651629 2.768183716083627
454 2 0.013866898604375366 39.519271694309566 2.8636205730830153
455 1 2.8344741013735213 42.240009383213675 45.11574257495212
456 2 45.10758395428519 42.31704528237233 0.045706503547367085
457 1 0.020873860437437906 39.54689364525668 5.66084264531181
458 2 2.8024626747181016 39.55351901855867 5.625813444951966
459 1 0.007791683428571174 42.30499732784967 8.396607144671105
460 2 2.8714667450438403 42.35381307275016 8.42101134883826
461 1 2.8141256251918314 39.42659757198406 8.46342862732497
462 2 0.059594817345701344 39.472970810847144 8.439296386232849
463 1 2.805524759363926 42.34804417414487 5.607720021559782
464 2 0.031142272250049022 42.30410629945337 5.710798385532419
465 1 0.03612030931392456 39.47756717872298 11.237538479166615
466 2 2.8525793245332274 39.51322660462728 11.254820958700728
467 1 0.04628646238344826 42.25026437904266 14.051790809789575
468 2 2.7662970185925952 42.3311311590907 14.109047588027279
469 1 2.8348259510500387 39.523547692700404 14.12004651472466
470 2 0.037685390731638554 39.528303930702776 14.031369548535869
471 1 2.818349506202897 42.242233586613615 11.236904244722892
472 2 45.11758702293819 42.32790686230886 11.334090747556482
473 1 45.03746167952616 39.493183276436355 16.914606648375003
474 2 2.857376631318318 39.52128802858041 16.94569265365188
475 1 45.08215584143356 42.31544305370631 19.774915397697022
476 2 2.805539744806255 42.35571733619418 19.73338339459016
477 1 2.7702418714149832 39.503265802702735 19.719779183614047
478 2 45.08702433748117 39.47936910875051 19.778487705891052
479 1 2.8675964256975677 42.28652249129433 16.94151667417943
480 2 0.00877050980606534 42.31878699698822 17.003871858265306
481 1 0.06500781489704154 39.49177369820442 22.489142525473458
482 2 2.7398054071053646 39.47543238984567 22.583089396270605
483 1 0.036932230720874475 42.357395639581256 25.451900407284434
484 2 2.755200285268672 42.32436155114656 25.351755243097298
485 1 2.8749955226585135 39.49661830446052 25.41112731795188
486 2 45.1025194821929 39.489134139893956 25.31965929177519
487 1 2.847626373005558 42.29165496221675 22.494693340408084
488 2 0.04746787940519351 42.37498269075592 22.520820862382056
489 1 0.04042620673793463 39.45500657888201 28.12444455789889
490 2 2.783993948992377 39.51281121166224 28.213436015345625
491 1 0.021419149230224036 42.361286207464836 31.064773454478733
492 2 2.7991860652398812 42.24206067874808 30.994391756408596
493 1 2.790653689093149 39.454721765802894 30.927960934616273
494 2 45.06301300969921 39.488635959303075 31.052497299918812
495 1 2.810545161152065 42.272879846394254 28.278919576578225
496 2 0.0379303588818988 42.331671782003234 28.1185055449882
497 1 45.09413822340284 39.52007307260093 33.86926864609044
498 2 2.873360656243664 39.504674523649534 33.77300298081253
499 1 0.054385252784868485 42.23951927881794 36.70385100770343
500 2 2.819190910372038 42.22723665899605 36.64042592930437
501 1 2.853696114121738 39.46352912062358 36.626112118518506
502 2 45.10569246761694 39.43947012548775 36.59804154534504
503 1 2.847344403120696 42.34988265635969 33.80551893817336
504 2 0.061769606335878524 42.25434404172659 33.828237141221265
505 1 0.007787922427810186 39.57424107916163 39.51203202463965
506 2 2.773698922409182 39.503904650298274 39.46974965379307
507 1 45.07297307262641 42.21532000655084 42.29735196333894
508 2 2.817858060446775 42.28567411563958 42.250446817820006
509 1 2.7401010868183895 39.485989917864515 42.308340321702005
510 2 0.05006247295923941 39.47590298449794 42.323422813157876
511 1 2.918015297106724 42.29499208707165 39.48629823437582
512 2 45.10849429635346 42.34751600182443 39.439623528207505
513 1 5.637722192026058 0.07952263968175426 45.113813408986154
514 2 8.40494125730357 0.022458194094806226 0.05082044427917635
515 1 5.671367019685144 2.8355686302528573 2.8614634066539164
516 2 8.509918267247429 2.761573844418088 2.800000420565666
517 1 8.525855488707771 0.03699969119330073 2.8377645841920445
518 2 5.680099180583673 0.05677588545704944 2.768835592649711
519 1 8.419176234264388 2.781613891209446 0.061843125471446596
520 2 5.565717813929707 2.8034739131465685 45.10693350919331
521 1 5.669966931562427 45.06947710021003 5.638858701140896
522 2 8.515645414934204 0.05108667259376422 5.658755397173457
523 1 5.629656911560986 2.8896709547001156 8.39372745461121
524 2 8.53254675993443 2.8575812565419145 8.503708909338018
525 1 8.476926378593609 0.013065618822481953 8.519271432002625
526 2 5.604590886083939 45.081719353596185 8.464988813247274
527 1 8.462614621395879 2.828205232333076 5.71973762187013
528 2 5.59358895940621 2.8801914768127244 5.670799809937192
529 1 5.712948740024766 45.0767779199884 11.263169456555438
530 2 8.43735074349166 0.06548013643548879 11.239345553442005
531 1 5.700772500527858 2.8785792384490216 14.131729344916392
532 2 8.479329967636234 2.7512242298120655 14.108050153069854
533 1 8.40875456857241 45.107011033825145 14.107274894024398
534 2 5.623968871990457 0.04934897721082409 14.093295463770952
535 1 8.404291752622836 2.7818658089905446 11.234172789275577
536 2 5.619749941675758 2.8998395726019024 11.312365372264601
537 1 5.650149073392533 45.08157565196693 16.990822229821912
538 2 8.458914812356973 0.09279937418500316 16.886694631388103
539 1 5.626737502954769 2.8807171198819823 19.714892677929317
540 2 8.497506946973408 2.789704153443544 19.667135922204533
541 1 8.52734082464978 45.088710540267066 19.767964732614065
542 2 5.663020297908758 45.09890817239373 19.700450789482062
543 1 8.41311063712287 2.798944670716295 16.925863400269247
544 2 5.69694002248471 2.7879100649416912 16.90212460882955
545 1 5.7147752010245325 0.05896919988903374 22.589076022926612
546 2 8.418817041302518 0.05190349161239426 22.572095864498806
547 1 5.5965788889507575 2.7865040349675194 25.451338250092242
548 2 8.493781009763332 2.810302981018043 25.341959506468733
549 1 8.483969520562855 45.083145337728844 25.409887172978163
550 2 5.629853520366276 0.060173261454607226 25.38302929788831
551 1 8.479048415104229 2.794364700809455 22.500518367485572
552 2 5.649183195468518 2.837776090897206 22.608877541453758
553 1 5.617631433364104 45.06782235816317 28.135355639128008
554 2 8.499473075352398 0.05068756713250342 28.137504397942187
555 1 5.626621738629794 2.8015507264142383 30.971983108525905
556 2 8.471557171575132 2.869104906833087 31.007036220089326
557 1 8.401001941227259 45.111774457683666 31.07659040940838
558 2 5.715564081478457 0.009546936610065655 30.992010219020848
559 1 8.386839598091154 2.763038525488864 28.196724854317587
560 2 5.68355603983335 2.869512535026051 28.149264788014698
561 1 5.577247208307392 45.05589580510434 33.8459907223446
562 2 8.431866213384861 0.04452024568974862 33.790222727571376
563 1 5.713803635890152 2.7908435172226786 36.66976360622599
564 2 8.46793106051964 2.8077741481011 36.58844185230964
565 1 8.444192025439184 0.049890634791251345 36.618028728964056
566 2 5.548671626399088 45.109148655750815 36.63955460997898
567 1 8.411851399609473 2.791972344889056 33.82208343412791
568 2 5.597684678917094 2.836682617034002 33.9124256040651
569 1 5.657240087993439 0.01522128711603375 39.554832576351025
570 2 8.494698439689506 45.02772326230424 39.46849528692971
571 1 5.567495688634193 2.7883071524967127 42.33546108453692
572 2 8.450860173215212 2.8005384010401957 42.35982963147088
573 1 8.395017187185214 45.11594599695575 42.32371353723038
574 2 5.6417199683245665 45.03709877743009 42.29839171455635
575 1 8.535377724346475 2.8533477201044044 39.50965510297856
576 2 5.654009362180491 2.8261602260949203 39.42343996230083
577 1 5.632550684883285 5.650383122088986 45.04494080758927
578 2 8.50341148557086 5.659345646373122 45.05784043646348
579 1 5.558685834997337 8.437791676044716 2.8650433630150576
580 2 8.436241473025378 8.534129143074475 2.8462421303125343
581 1 8.410780933987171 5.610516174625563 2.834240609852152
582 2 5.6921918673923315 5.688726720040363 2.8130068894214535
583 1 8.477461544253984 8.457068110601424 0.09601129731262305
584 2 5.617052943570256 8.474026405278762 45.07689994021154
585 1 5.725828947237319 5.688755807729396 5.639928801068829
586 2 8.389598719540441 5.691720387364423 5.669658172311134
587 1 5.642039309165286 8.496758638006048 8.384722353162624
588 2 8.475576189373493 8.50743604594369 8.424179102262151
589 1 8.546292939996995 5.625998039265605 8.486515368866995
590 2 5.602267892173573 5.65783153997881 8.401813592743943
591 1 8.396157595092372 8.437855757473562 5.576464933011321
592 2 5.629396398837188 8.502863837699056 5.583910432914183
593 1 5.585891518649501 5.642129456875124 11.2544701105733
594 2 8.397582581158808 5.648210364832095 11.244905249777416
595 1 5.725004439139585 8.449945318605806 14.04911599351258
596 2 8.457338595749327 8.499907064377345 14.151250959216306
597 1 8.451909292155412 5.587788579289833 14.023389159055565
598 2 5.566687561465143 5.601401754286395 14.072024423836655
599 1 8.458446381418447 8.40438736954256 11.322279844101452
600 2 5.688408249192732 8.516674525278843 11.25665555621048
601 1 5.651311700130745 5.596080960240745 16.991847911720896
602 2 8.417397497675152 5.621961028940472 16.969991611880637
603 1 5.697614598458486 8.457877436524624 19.730414562425047
604 2 8.408836764777014 8.494905326508048 19.746289097526773
605 1 8.395060266221261 5.6700358079579 19.761160583492615
606 2 5.605376818565399 5.58550200240138 19.811329820745115
607 1 8.473859090679298 8.48884037685523 16.992658434514453
608 2 5.692286414434173 8.493326213736234 16.94564758319689
609 1 5.572289781609415 5.580909962073904 22.603360205268167
610 2 8.511381972274185 5.681138883719885 22.62671586934729
611 1 5.616342589502252 8.484123727077247 25.33777216116635
612 2 8.463757742366912 8.515982039886765 25.339226088928427
613 1 8.498974225297076 5.662632848656886 25.40738317175677
614 2 5.633140339138251 5.594878364855136 25.35730549823697
615 1 8.489064859610606 8.445300580942995 22.598005496837718
616 2 5.652455235654531 8.411177920255058 22.63733792806544
617 1 5.7075567039041335 5.603409076023168 28.225583818933202
618 2 8.494370615106902 5.701649843717179 28.1771496127894
619 1 5.601085008824323 8.503787353460863 30.987580449986844
620 2 8.397441856991717 8.507155786327498 31.03292475653331
621 1 8.386666677942706 5.579424761679905 31.00538031072421
622 2 5.622432855397442 5.666044681359722 30.97310057017021
623 1 8.481126013669265 8.548996033915426 28.211708610813254
624 2 5.582509882876137 8.413205138503837 28.20282595347494
625 1 5.625976441862624 5.667736504338091 33.7986540446539
626 2 8.493230529804418 5.598942641277853 33.83916853111559
627 1 5.572646582550797 8.511009752452479 36.61186043268689
628 2 8.37623322762395 8.434862233239647 36.62961446518903
629 1 8.39972965044834 5.654156806348974 36.585476935834976
630 2 5.683654342096913 5.627751162176599 36.69536645784511
631 1 8.410161034803066 8.394181838696955 33.894087103869516
632 2 5.620309584552168 8.407832678242782 33.83706477801645
633 1 5.592008539409343 5.639550177825908 39.528056627245135
634 2 8.52862396187511 5.640132000936757 39.46818671522227
635 1 5.60401211642879 8.387572704611973 42.34033758406275
636 2 8.441984044807086 8.416445066760692 42.330814612009576
637 1 8.424894304808253 5.674029126362785 42.31095993937123
638 2 5.576539139697295 5.645238300124555 42.24859047170692
639 1 8.42548892980688 8.40271648858108 39.54987483425421
640 2 5.576707659498873 8.448321967455147 39.42565979278389
641 1 5.639153690399852 11.266851622248709 45.06178275708202
642 2 8.520133330137236 11.34530025825283 45.09643581181564
643 1 5.7222999253625515 14.076535510567167 2.8583867980265625
644 2 8.508087270698171 14.091568479315107 2.8762487443553595
645 1 8.447985148240127 11.276099733776265 2.8987656985171806
646 2 5.650510331069499 11.202401726738179 2.828585047241264
647 1 8.413167265535916 14.039256509219307 45.085560376261455
648 2 5.6532701093644935 14.054690587410903 45.062974632159346
649 1 5.614741033983493 11.306911747897058 5.593681997986438
650 2 8.411050706288346 11.198593993473045 5.6109174024938095
651 1 5.678794363392894 14.146044135382125 8.496290330584376
652 2 8.450805427863235 14.106784883338086 8.526494997872422
653 1 8.433243222475795 11.29121416176586 8.40237313291192
654 2 5.679204168276798 11.254083500248111 8.393598527797815
655 1 8.50804821363252 14.030912902445255 5.586079833264144
656 2 5.682181036196123 14.071289762455221 5.621994638149805
657 1 5.613755410581789 11.310145105446502 11.209480524275481
658 2 8.52958646498227 11.266456978884328 11.26236589441037
659 1 5.592758236595086 14.09233688010141 14.17746785156027
660 2 8.47172343536816 14.048637763240073 14.080868451291023
661 1 8.512505082336416 11.288382401038943 14.074721608612895
662 2 5.673756786720128 11.300161548676328 14.039824909676911
663 1 8.38954410397455 14.118414561433267 11.34834130886656
664 2 5.606751590402466 14.094287515542678 11.33485479506262
665 1 5.719453928906674 11.282979504703054 16.977078434343742
666 2 8.483836580771035 11.262349924107294 16.85589210178392
667 1 5.582673701362117 14.123274587016981 19.766427973866488
668 2 8.443632563041879 14.072048775907168 19.68784832400661
669 1 8.41089891272357 11.276431523836369 19.69398464670983
670 2 5.638969043008551 11.225539221612536 19.71091502624649
671 1 8.545363977099681 14.101938432340758 16.90620142597358
672 2 5.634668077221142 14.054669347204062 16.961193100932693
673 1 5.719415825567083 11.23016747538055 22.581477655794423
674 2 8.431266387186362 11.296954986710265 22.50254059265473
675 1 5.64874406120852 14.14907900275307 25.394589675573567
676 2 8.438967207583719 14.13385303185717 25.449523985410686
677 1 8.498454029819287 11.285115426920886 25.33779574345195
678 2 5.649061482965748 11.319983991778075 25.33804800751059
679 1 8.513136687206737 14.108035665185648 22.642283465511376
680 2 5.637820027552383 14.063130848943333 22.59393346696437
681 1 5.585709363640438 11.317476742457334 28.19402624281471
682 2 8.455373312739068 11.29608492369471 28.136201366069297
683 1 5.658814907832258 14.131025605483686 31.10083250568417
684 2 8.467376122456615 14.118802463538227 31.098361328866023
685 1 8.389614310336553 11.285473400428515 31.057323217499995
686 2 5.70379854315557 11.276082378328852 31.026121394020965
687 1 8.43488850942982 14.190288315793948 28.1766192762745
688 2 5.700938012047416 14.090940999480216 28.2027427926966
689 1 5.586240675351935 11.282492770189393 33.8386969111737
690 2 8.404406550054029 11.252254231208129 33.82299325553659
691 1 5.594877819088627 14.064073448758586 36.70337653058087
692 2 8.430737986304484 14.075661601284482 36.62034613813546
693 1 8.519186242384121 11.324277408783951 36.675344894384374
694 2 5.652402365507412 11.207583723937026 36.618127766910696
695 1 8.419347260350582 14.139694705881528 33.88174056200553
696 2 5.6667226258641845 14.159993589966183 33.860706568303556
697 1 5.6646292790569515 11.318958629483815 39.420146745251174
698 2 8.460136869248274 11.236256377892813 39.52561625809905
699 1 5.62371703099465 14.158562083882124 42.335059656347354
700 2 8.44343695118725 14.050219139627007 42.26628769759765
701 1 8.502051042579648 11.266992554431297 42.24003243367624
702 2 5.634558602850029 11.320988898929299 42.33896769267848
703 1 8.408907839532855 14.13327569657833 39.54617505822962
704 2 5.549507002602218 14.067396640619979 39.45519744720877
705 1 5.660192607218574 16.894497566078012 45.05016524181038
706 2 8.47418976922858 16.891900848784584 45.06625787346582
707 1 5.601275763212762 19.732953575876813 2.865855412556514
708 2 8.455404942512672 19.76825084526988 2.760868854964403
709 1 8.426826528107721 16.870239861418355 2.809139893094763
710 2 5.6886925950164 16.885451743981427 2.741321815706155
711 1 8.511322427481366 19.698728644553857 0.014759693847960397
712 2 5.597610242341027 19.77296384678049 45.09555107099877
713 1 5.662760730783158 16.937775734598397 5.703581988978403
714 2 8.454993784789155 16.859098781359304 5.5674980166892505
715 1 5.588278054217085 19.772498629247263 8.398189581601853
716 2 8.516881535926075 19.747501414375364 8.423413083307567
717 1 8.41388411040479 16.856409383844365 8.477757631398822
718 2 5.588411775656084 16.984497722036885 8.4420734937117
719 1 8.448735192512698 19.783826367426848 5.604466435878691
720 2 5.639959043834876 19.793531459653707 5.652280396641466
721 1 5.657853435361857 16.89105299699005 11.219587425436377
722 2 8.509915583609722 16.915430100715234 11.33417363682636
723 1 5.603887028271716 19.80626761564271 14.089158275232721
724 2 8.481751312419476 19.8034984825034 14.123043131938191
725 1 8.499779295173655 16.84253423930346 14.077165578331812
726 2 5.711825050705681 16.911950983643873 14.111192699872245
727 1 8.454177356377235 19.717808372688236 11.226658993260925
728 2 5.59629485101792 19.804407721302248 11.276973609045443
729 1 5.60276568329095 16.89168404015647 16.947356394355992
730 2 8.406953913869458 16.884976540831918 16.85746181048998
731 1 5.585503244222324 19.81137346570116 19.733902120882977
732 2 8.434727730946102 19.692722644727915 19.796002841565546
733 1 8.476467972240536 16.998317370313778 19.776665924625537
734 2 5.623776963026155 16.898166811836376 19.66123237146095
735 1 8.443400793850946 19.813027518972643 16.878164752249884
736 2 5.640282986983526 19.761731302286538 16.997288518480374
737 1 5.715487043121036 16.90873219150731 22.535092910300623
738 2 8.499473927095288 16.927931067977593 22.63470448535682
739 1 5.697817054834454 19.686689777671617 25.36432609625622
740 2 8.480592102215423 19.76437184202321 25.324795098236336
741 1 8.386951568271275 16.859116007698034 25.40342917791637
742 2 5.635918487162754 16.87112885606459 25.365328327692136
743 1 8.388534831912523 19.730290164992045 22.528073008586052
744 2 5.566294506631321 19.7288569911347 22.584124833158462
745 1 5.641092614193639 16.943697365297737 28.244049725258616
746 2 8.528198751843519 16.904820149668186 28.260194141604654
747 1 5.593172210643124 19.686825365584603 30.96390163883116
748 2 8.471114809439563 19.787085036981832 31.10455633877425
749 1 8.521017526811189 16.952146849425223 30.98828445560566
750 2 5.650229145525385 16.992527775498 31.00368462123717
751 1 8.503417812474783 19.720889366043316 28.18335555352249
752 2 5.650853081160304 19.79730892048825 28.148232864895398
753 1 5.601177740869605 16.979098023790478 33.80884496551963
754 2 8.516915088754015 16.897292514677204 33.86963998064591
755 1 5.6353152394371575 19.764415799489814 36.60496470291868
756 2 8.388661003213473 19.77444569143657 36.63649103704556
757 1 8.42475269014475 16.8775934535875 36.619905325024405
758 2 5.699832309975646 16.879205741107146 36.636014806406386
759 1 8.526973498326901 19.725277908407634 33.83980737788313
760 2 5.66540795330812 19.719543825376913 33.792444317763994
761 1 5.685480904433478 16.93137412008428 39.457613356659664
762 2 8.425810304276386 16.891428203335575 39.45471382120834
763 1 5.553959572355368 19.786849217319485 42.30407460691538
764 2 8.48761306423583 19.666993039370876 42.27503919954022
765 1 8.397337536408859 16.93972782737819 42.24616238055044
766 2 5.582622303184682 16.970322570445273 42.33273649592608
767 1 8.464338845012135 19.7998276932165 39.55002099856193
768 2 5.704722742960304 19.74756969816701 39.465383237845984
769 1 5.606152828780092 22.622869873138733 45.070516857131935
770 2 8.398696050684318 22.5972038842711 0.03509721350894318
771 1 5.689322851145585 25.314198603408745 2.843302528921585
772 2 8.534934188536234 25.34071682351976 2.7980478628747343
773 1 8.444606357499211 22.638489633696622 2.866539812260244
774 2 5.598841600546234 22.513309633591987 2.8399598073329093
775 1 8.429481979825649 25.45626852024882 0.03804965206392719
776 2 5.667788404767545 25.335253577750354 45.1049205370861
777 1 5.6534603375951855 22.572574157816835 5.589153078514938
778 2 8.421244760847909 22.51693048765864 5.643284686392109
779 1 5.723022465209532 25.347354780656065 8.441861870784376
780 2 8.414197466995796 25.356792213105294 8.500527214119584
781 1 8.414792873816051 22.5959712834771 8.452146281053587
782 2 5.575139884093201 22.608158876727458 8.502422974245087
783 1 8.421197136195259 25.44687123660421 5.612558815710018
784 2 5.651085552780474 25.416193288314492 5.589713979011942
785 1 5.693121661594004 22.59907837152157 11.22702905348744
786 2 8.504459416493948 22.48180556568246 11.300100124497057
787 1 5.622168510631586 25.383491535048567 14.157443442339744
788 2 8.441069894876172 25.337642587341836 14.14615038543411
789 1 8.497187851416333 22.47726651902259 14.068253984600466
790 2 5.583595813255669 22.617891390276537 14.14403311616293
791 1 8.481355908941726 25.387481468592902 11.21034930321335
792 2 5.600245900794263 25.389525091669924 11.191080856280609
793 1 5.635573756164485 22.502738661931005 16.95536799694271
794 2 8.446544549895052 22.632472633817265 16.943109174244057
795 1 5.6478702264442155 25.312655063131487 19.78343088521462
796 2 8.501159367989898 25.350410907849568 19.722290350701154
797 1 8.543509012167624 22.585683172954408 19.725149390753035
798 2 5.691641846623756 22.581957774746275 19.69690085418296
799 1 8.417178543063454 25.434802680197755 16.941997618069703
800 2 5.678994313374292 25.40365606919872 16.897783506698925
801 1 5.69158761091688 22.52875318930692 22.54465706839484
802 2 8.417245678755048 22.483469759254962 22.59400507935912
803 1 5.602724653991892 25.355775618956205 25.413378049321707
804 2 8.501307528000387 25.35033159041527 25.317550792375478
805 1 8.455584041596564 22.49231786819367 25.337200623037447
806 2 5.585910233350989 22.537942883748094 25.30255258324177
807 1 8.452739730990139 25.449035682782917 22.591326208164674
808 2 5.693663621603062 25.41486315775823 22.569026058221667
809 1 5.581822106287148 22.495962964916256 28.19901337254018
810 2 8.432269258658327 22.496575893385266 28.227805190712736
811 1 5.724528448590767 25.375298237588243 31.025927350767326
812 2 8.436593475504973 25.350560621629693 31.104459461389514
813 1 8.388394706042805 22.55081149450261 30.994516618161516
814 2 5.632817337621634 22.62838973084754 31.08495363844121
815 1 8.452209589526712 25.442467831858668 28.15737897379597
816 2 5.655987051934297 25.459985892247268 28.174038452108647
817 1 5.6486357426985006 22.623092405943208 33.804530463450384
818 2 8.463678918945474 22.541995764676223 33.776119178873344
819 1 5.65087678773604 25.357288409952833 36.704548657445216
820 2 8.466881568011667 25.310006051650163 36.67361306065316
821 1 8.48644230760194 22.508749076377594 36.674722177865554
822 2 5.595483998227115 22.521321150660032 36.700816628344896
823 1 8.368227679040844 25.345656180951533 33.84036751041118
824 2 5.695309500611202 25.316910374596336 33.86200617384487
825 1 5.627848886505216 22.49530178655009 39.51270077929774
826 2 8.468653563797767 22.529087037885912 39.52762679314772
827 1 5.678524450694134 25.344431864613064 42.36292283688929
828 2 8.485464169932676 25.419156805793428 42.271570710193636
829 1 8.411241607169002 22.48795613076695 42.25260590265531
830 2 5.593192693000314 22.581930926684628 42.276112628545825
831 1 8.49124561118178 25.308799766330836 39.486406215475306
832 2 5.585428699175259 25.379090182966436 39.406785438956526
833 1 5.604863327680683 28.23915654022728 0.012696966276654746
834 2 8.465983785955686 28.169968898788863 45.04315759497821
835 1 5.603056207177632 30.998862357964256 2.881195399957865
836 2 8.51123304269369 31.04846821668919 2.7676569264927795
837 1 8.40823535504949 28.24547291474606 2.79359088317201
838 2 5.626649611933704 28.276000363445174 2.7810926541388414
839 1 8.440556954277058 31.002760529987857 45.07502967768254
840 2 5.600453308684345 31.055646395075485 45.08042866241894
841 1 5.593051903536132 28.21325581054905 5.57566538337686
842 2 8.438744709679073 28.16499351049952 5.607700905184498
843 1 5.634780179325972 30.967512846982373 8.439521851659315
844 2 8.523368446790105 31.0774204382329 8.431348649024388
845 1 8.500764081029118 28.164685328374325 8.408750366862062
846 2 5.574037410698816 28.163606013961648 8.475037562874917
847 1 8.447492929687202 31.083837527061505 5.672249905123776
848 2 5.598841499802022 30.99405558885078 5.6149118164134615
849 1 5.690453753227037 28.18059883380274 11.279267658115947
850 2 8.423079246489452 28.26520002315782 11.262473977723486
851 1 5.608580889294911 30.946156891955074 14.146936914417246
852 2 8.397453713303003 31.012559565614918 14.056613465572491
853 1 8.451807008427371 28.112914706543748 14.065536620650551
854 2 5.607109746929979 28.266119618736656 14.140880669576209
855 1 8.473293712356677 31.095462394054458 11.318761141972566
856 2 5.593869963697587 30.975911035954727 11.289188968609118
857 1 5.635733895192491 28.2130045495926 16.86927182367256
858 2 8.515633445861539 28.18941554693479 16.953769781915927
859 1 5.686361688291945 31.0014083474139 19.758310371669822
860 2 8.511918178627464 31.067526973206256 19.7645015692457
861 1 8.483606124143398 28.204233183661245 19.80811531763342
862 2 5.706546161734716 28.214185672640934 19.68604877116066
863 1 8.409946912170712 31.01357901109039 16.98899150435027
864 2 5.60978512352077 30.979937996308678 16.904964032798635
865 1 5.622775224348275 28.15475304803728 22.61204907775919
866 2 8.483780679154789 28.286341485927306 22.60390614588892
867 1 5.6445787336555995 30.968363606762388 25.384840540299844
868 2 8.41996459071931 31.08606233302601 25.384501704615257
869 1 8.423514662638725 28.17401015932724 25.32251818201144
870 2 5.603587941625262 28.220960024015945 25.45839214227807
871 1 8.486949303001557 31.061974584530887 22.606194850524293
872 2 5.626703391552792 31.079704350758664 22.504463403336864
873 1 5.644216740894237 28.18203169093756 28.132828573655452
874 2 8.510491994103003 28.13919966891302 28.22098057895542
875 1 5.706392573217711 31.01247932523824 31.015728347351434
876 2 8.406401417808299 31.012948483240148 31.06095631823062
877 1 8.443239356774969 28.16872065654686 30.94566172526688
878 2 5.721069935518651 28.22596578906182 31.0009558110696
879 1 8.521006626607429 30.9889532207014 28.18045870760784
880 2 5.701784290012214 30.99392909906792 28.20844529341113
881 1 5.709098752302793 28.230122666212782 33.84193943075866
882 2 8.39319206209233 28.192969749141568 33.8276027609374
883 1 5.613040686965703 30.986406273203166 36.6196281100322
884 2 8.395008096751837 31.052847840875373 36.662927207720024
885 1 8.512065168672887 28.218974736508248 36.641285490382096
886 2 5.586358021987242 28.18278931371013 36.62517291629936
887 1 8.460187874008982 31.11872678948989 33.83227055554702
888 2 5.643686762342339 30.98671680330287 33.79808875085321
889 1 5.613950093324057 28.11986044494786 39.51873720255549
890 2 8.522384454359827 28.176532551022675 39.44852759691832
891 1 5.705248802654535 30.99094776354556 42.303835248123555
892 2 8.45608278538909 31.08965560731697 42.23761131350433
893 1 8.41332786100164 28.23700045128701 42.36595661833972
894 2 5.581578581358749 28.266924175518213 42.27325875671014
895 1 8.399419865834245 30.967438952752524 39.509514292187966
896 2 5.676014470741637 30.954989033692865 39.49530660801684
897 1 5.62519241665384 33.793775088752696 0.06556351199341706
898 2 8.417280906200206 33.84452749396157 45.068567510769995
899 1 5.570348062566864 36.6746719925589 2.8460585772784386
900 2 8.370682465628672 36.64954168661004 2.8505310061416025
901 1 8.522322409732107 33.8735153765455 2.8650516078453494
902 2 5.694129956023293 33.78295497432586 2.791921278753167
903 1 8.510189560839619 36.62194102891435 45.057917076846955
904 2 5.638340166263137 36.591070191723475 45.090334279530495
905 1 5.578082769444854 33.81758705651426 5.711305950674971
906 2 8.538868880425484 33.86016797062765 5.607331730552268
907 1 5.696167167573043 36.69230449672673 8.413722766636893
908 2 8.535254951407902 36.61869763885985 8.410508213316662
909 1 8.466815561945452 33.92143171436329 8.41624447442035
910 2 5.657373010767636 33.750527121375455 8.474294695342323
911 1 8.448754146854398 36.647708637708774 5.580630714617717
912 2 5.6070072361547645 36.62026063057841 5.653783852877771
913 1 5.584684263478854 33.8563991150892 11.319534451619996
914 2 8.43534979591384 33.79364872271542 11.334609199030636
915 1 5.6584200165590115 36.57331628969967 14.133783347463845
916 2 8.410839346673212 36.694428651411904 14.161184336332228
917 1 8.446872564287649 33.847900198337825 14.05160883426131
918 2 5.651407326396903 33.799133861053 14.152656463141915
919 1 8.48116876189589 36.62332744788042 11.347737673164811
920 2 5.574087802265155 36.67001356972875 11.256061016461544
921 1 5.640137770829233 33.774539509695636 16.971257472524833
922 2 8.417362272537805 33.84648458749686 16.956220233663363
923 1 5.6079862592926695 36.704922384505664 19.766112024254795
924 2 8.427972928400301 36.60429620160892 19.734711894967003
925 1 8.416085593502645 33.79017189445781 19.727132406170295
926 2 5.626262320134119 33.84691144518721 19.83189954448833
927 1 8.527237995360474 36.722650242611714 16.958149133152972
928 2 5.615195556787723 36.61642659983107 16.91065138291333
929 1 5.6775993292205245 33.87801262590935 22.51378304625011
930 2 8.414791551261635 33.88267846522115 22.59631191925395
931 1 5.562404722765579 36.65043713505723 25.38619076742162
932 2 8.526682031007963 36.6305042608363 25.415770765776728
933 1 8.484218695255125 33.866594145418944 25.473239362362335
934 2 5.645533389112122 33.79165612599598 25.41404744679684
935 1 8.430621624911232 36.71415535462184 22.575969477914867
936 2 5.5940113012706565 36.67199295148982 22.530139453220006
937 1 5.65734471375794 33.81404922091947 28.264833227553986
938 2 8.419465974491159 33.81906271135214 28.160140578672742
939 1 5.557156071873888 36.63185102268482 31.04235275122852
940 2 8.51255028449372 36.6647832867086 30.977350253633336
941 1 8.416694843038162 33.866168581349434 31.00590034981908
942 2 5.65770230535727 33.79294902942237 31.086890535544953
943 1 8.503805615047067 36.603709526914926 28.222047703497037
944 2 5.684146814735841 36.654193012746056 28.14406417361504
945 1 5.656026601275594 33.904813551953275 33.78396362237726
946 2 8.556857763869846 33.817992503404135 33.83138363705392
947 1 5.660594790202523 36.66132324100783 36.75267449884824
948 2 8.410973787253548 36.65637787520953 36.62061349500194
949 1 8.443840069673124 33.93405806894561 36.63323238054646
950 2 5.652274352317443 33.84837666817508 36.607497173989245
951 1 8.43099910029246 36.6140873814506 33.836135353687624
952 2 5.608681627748313 36.638625147011936 33.803429303997845
953 1 5.677434238454456 33.87318978115421 39.56265162496199
954 2 8.453240192598072 33.86836877132314 39.52341670769255
955 1 5.688681529959742 36.63092308249419 42.2811434460949
956 2 8.407011723666692 36.58509859511164 42.338591931329766
957 1 8.497487233176644 33.7680349240147 42.24410253504351
958 2 5.680995072269174 33.775742672817586 42.32992798453258
959 1 8.451875764286887 36.710934623982375 39.53413924710215
960 2 5.595366582527094 36.69308230620512 39.46824770996382
961 1 5.581963162284887 39.510855191127035 45.06986157804749
962 2 8.421033950571086 39.469308181414135 0.04218802895786396
963 1 5.590490995919444 42.27164062717195 2.773932462637298
964 2 8.423965204592815 42.29555638080991 2.7805236736331427
965 1 8.482411746635456 39.4876410346522 2.872148980557374
966 2 5.691267252830078 39.453606566288286 2.807158412161781
967 1 8.42431373112043 42.27329803271621 0.023819938144145597
968 2 5.66888011542824 42.27563974695238 0.06411694103988942
969 1 5.619951055621838 39.4714465821818 5.574317562584801
970 2 8.513033161146929 39.539204947457755 5.640222570405863
971 1 5.548617419755777 42.28964994657436 8.485180988173942
972 2 8.420962426617484 42.2909509683732 8.50795028082516
973 1 8.405775716375135 39.50368503940522 8.403561124024124
974 2 5.648323159390664 39.53008889856888 8.416271670933535
975 1 8.504969472318287 42.34754073633093 5.588813556449244
976 2 5.610920565390297 42.355084638338944 5.661000284800737
977 1 5.685652609213129 39.5112341094663 11.236716370764558
978 2 8.412495675091664 39.434095046121534 11.21995719521238
979 1 5.5739838986746 42.280609889654166 14.070396342543521
980 2 8.468069420480763 42.271365991446814 14.146804746451357
981 1 8.507381695632459 39.43871653999274 14.089468265767133
982 2 5.615644829515435 39.42411898855748 14.023684842107931
983 1 8.467729496559071 42.3341530474758 11.244069257548182
984 2 5.6653709369575855 42.3140674059779 11.325641584873074
985 1 5.641977528676129 39.48700238312491 16.971231446046005
986 2 8.430680390267053 39.51138684569066 16.987613673157504
987 1 5.685516569998123 42.341945592506505 19.771519462264944
988 2 8.44229098918698 42.361796818916815 19.70843305928965
989 1 8.409472280733993 39.45446536583582 19.80518720949672
990 2 5.678896744175599 39.511931374906354 19.770798035471564
991 1 8.506649977746795 42.31049202622942 16.861504702406314
992 2 5.618187428624841 42.30523138668272 16.98385554785769
993 1 5.69959259401475 39.51840520497986 22.619899830672313
994 2 8.409203835365613 39.454978337027484 22.579575862714037
995 1 5.713303715002412 42.257528748201565 25.42002966908817
996 2 8.383170575620952 42.32058874964659 25.43827006071857
997 1 8.453699987706596 39.46063112467066 25.46425914566947
998 2 5.642212214304446 39.54165198262722 25.351060454539976
999 1 8.40849264205109 42.23370438054847 22.6031758058768
1000 2 5.605447634211244 42.25840349030347 22.547214917128336
1001 1 5.615936958930763 39.46294324858013 28.123185297997786
1002 2 8.439597161905004 39.48144410770416 28.151152206042486
1003 1 5.6465113667810005 42.34026157791398 31.111246605646453
1004 2 8.477824539512904 42.34527292255811 31.03178268770729
1005 1 8.510012867071776 39.484272749372536 31.0898519266659
1006 2 5.700703404383353 39.42360371931486 31.038694177944365
1007 1 8.419253248990609 42.328333066448316 28.193605206046758
1008 2 5.677177061912142 42.36662552803944 28.200314779015443
1009 1 5.647600325658033 39.45000120383637 33.91412318624841
1010 2 8.503763811356418 39.50535370881844 33.844767127914935
1011 1 5.66301663143732 42.2553335335722 36.66268962863985
1012 2 8.415614840397227 42.317636444362584 36.62597987732482
1013 1 8.475014828046215 39.45524728904679 36.73016279725437
1014 2 5.597288955154131 39.4688937806458 36.717168384610076
1015 1 8.540390771425221 42.3375693387738 33.798356592510785
1016 2 5.650075721663272 42.220109484671326 33.8223515690795
1017 1 5.635562553064783 39.554240512293454 39.48825165632759
1018 2 8.497465162270167 39.41420584903557 39.54241980874614
1019 1 5.653302205016042 42.34764088426082 42.31546367008148
1020 2 8.455017063757358 42.306929431446505 42.243377480105714
1021 1 8.407910516514423 39.52292194979047 42.3310270682255
1022 2 5.590828568913499 39.49474837792924 42.26985114557174
1023 1 8.445101723224905 42.35907629187107 39.43098432953537
1024 2 5.624993423459264 42.24720946806822 39.54480513107638
1025 1 11.254875105190107 45.08617538459931 45.07476949643429
1026 2 14.145572142970565 0.014197280897632183 0.03389154146768324
1027 1 11.254202806614892 2.8974197097797636 2.7892968638891675
1028 2 14.045826138621733 2.856335051144017 2.8073679991737697
1029 1 14.121430312449434 0.034543752284798016 2.868770071972982
1030 2 11.275900126895568 45.07549496397507 2.7971055016374353
1031 1 14.115647471171709 2.873871989150797 45.11902662548961
1032 2 11.319468540401063 2.7520136389198706 0.04262483952509761
1033 1 11.227368283394433 45.073027171744506 5.626105806180693
1034 2 14.117146343934113 45.05077814735372 5.697568184146356
1035 1 11.213868138716412 2.8262377481186483 8.419472728853206
1036 2 14.108406171663871 2.7405199908098465 8.421421375410306
1037 1 14.057712099682805 0.030797992989366564 8.384173380046608
1038 2 11.35587060733467 45.09750277944234 8.468320250145094
1039 1 14.052871705923845 2.8052560590367923 5.655495729558045
1040 2 11.337415511451285 2.782078274600331 5.6833474838698494
1041 1 11.297695099731447 0.0649141711985775 11.258513629174477
1042 2 14.156724294849544 45.056065089163056 11.30405361720635
1043 1 11.346384414346717 2.8532051303631323 14.08762471353783
1044 2 14.168395418925366 2.854546611851721 14.063614003172901
1045 1 14.127425914101549 0.03442995573153198 14.065111152710692
1046 2 11.361905139381681 0.00228031194616871 14.092475634783145
1047 1 14.15444844404963 2.774909795573522 11.307515892502309
1048 2 11.240450677795929 2.8157806188338625 11.326790282215393
1049 1 11.280948988523887 45.105269314913706 16.974093188270313
1050 2 14.143200487358586 0.03759722309610545 16.986639573753205
1051 1 11.238241477331453 2.8381734402371275 19.786109045902112
1052 2 14.079855597866876 2.869043555415963 19.705135342220984
1053 1 14.043744015895323 0.05438764973210582 19.691787774675653
1054 2 11.21730975568301 0.010779238150517036 19.770798709566392
1055 1 14.127418504211676 2.811466490710925 16.856391491684874
1056 2 11.30834011702223 2.884115182272649 16.89717070527021
1057 1 11.316320445683608 45.05706495355489 22.52665082567687
1058 2 14.054407464906642 0.0036907008750997573 22.514981547873557
1059 1 11.33013688129348 2.835510770670559 25.381319484210756
1060 2 14.143245382526846 2.897177009644807 25.403486292414925
1061 1 14.017703129795931 0.008587441037178541 25.337075481149988
1062 2 11.323029741387009 45.08907098701925 25.38566174398295
1063 1 14.150725042639131 2.7814242010413777 22.55286632187342
1064 2 11.274347755339841 2.805237945835655 22.621971759753542
1065 1 11.328151080883568 45.092876425209155 28.173556869622256
1066 2 14.122618574413059 0.0839219762858678 28.193211146862545
1067 1 11.314789158274435 2.7487043655508927 31.036501278785977
1068 2 14.185511511469425 2.8304762835470947 30.979000219711093
1069 1 14.164888885170136 45.062577475876004 31.00352209325364
1070 2 11.29555789856904 45.09699546030208 31.0871766386483
1071 1 14.092339441298286 2.7386588968875336 28.244623895666873
1072 2 11.31866633270853 2.8160813913314486 28.252579377950603
1073 1 11.320696423223298 45.11360175742346 33.88395441346324
1074 2 14.121532737578706 0.05197084682222053 33.81426499468195
1075 1 11.24708898004804 2.8755196433357697 36.72188203895675
1076 2 14.099175907516754 2.825406338221002 36.71003047908364
1077 1 14.065092276152459 45.07063299368878 36.69312093268627
1078 2 11.318823687845002 45.0508988735096 36.63222263511615
1079 1 14.058292109841714 2.791385150336192 33.91333109756441
1080 2 11.283190076473241 2.7542688315679693 33.87126170985735
1081 1 11.336948116003047 45.113574990465644 39.472760969142755
1082 2 14.154326479860803 0.0828505830057366 39.46962010850015
1083 1 11.245179780018999 2.8059755466127045 42.36054142718672
1084 2 14.12165237316873 2.808228107092342 42.37950317249757
1085 1 14.180913185493752 45.086097345974316 42.33318444706959
1086 2 11.250831369813302 0.0012930437604457706 42.34549209709583
1087 1 14.144712157777704 2.7510417869273147 39.509914704479044
1088 2 11.200802322722138 2.7687887525316413 39.481138999442074
1089 1 11.252836438476415 5.691894554361501 0.004392049152538414
1090 2 14.179437965239083 5.647310933264907 0.010539072263772183
1091 1 11.286267960561526 8.531317969610104 2.8786641032602365
1092 2 14.055678871984707 8.449703634934934 2.886802034538149
1093 1 14.06228189338739 5.686060804050001 2.8358910507232964
1094 2 11.238401806916716 5.549438989063883 2.822444300364079
1095 1 14.148880548489746 8.466575720968677 0.01554260034114771
1096 2 11.326926790304071 8.436312298025886 0.03829196290303432
1097 1 11.231452150190146 5.595669482553814 5.568561205458584
1098 2 14.06460482566519 5.604546312779576 5.6576654715909935
1099 1 11.268685694644176 8.40573485484628 8.423804947249996
1100 2 14.074740207147352 8.509875254152108 8.432713554999458
1101 1 14.112045903078359 5.592571164784322 8.496660292650969
1102 2 11.235051177288058 5.561467482545145 8.46377681670823
1103 1 14.13861053923931 8.440639082788339 5.69654243750168
1104 2 11.20556659054072 8.455782836677214 5.676288732122526
1105 1 11.330880635003151 5.609907823473359 11.314531263845229
1106 2 14.165028452148974 5.598195665567469 11.289696989572667
1107 1 11.289198658520414 8.510875968649804 14.016821332838653
1108 2 14.1521932485429 8.488400596583805 14.1755572913361
1109 1 14.102898077149353 5.618366685626418 14.035420311779129
1110 2 11.266464343297413 5.6036142074239415 14.042330060002456
1111 1 14.025363937141545 8.437457608129574 11.265617435929318
1112 2 11.362641435990755 8.509852555862988 11.28626914415392
1113 1 11.330345560443572 5.613661734791495 16.891092960176486
1114 2 14.122233554928544 5.635033748869892 16.991408677252412
1115 1 11.30820593867544 8.42120262498136 19.684129678856067
1116 2 14.105366270039353 8.500617189587798 19.704741701194937
1117 1 14.078656217120585 5.695177256894922 19.740690728712174
1118 2 11.273379368968838 5.689720445327048 19.73413119105995
1119 1 14.035765446721346 8.464763691383688 16.848956481673486
1120 2 11.230034034755283 8.490430482745895 16.9024434857104
1121 1 11.301966226233908 5.590468101264066 22.549253633996614
1122 2 14.064683273863126 5.6128979926882785 22.610312006492606
1123 1 11.324273571244365 8.50025918550078 25.378786183098963
1124 2 14.057329594478132 8.456818342798607 25.327149630910654
1125 1 14.161486883866813 5.628885316487762 25.40362653930221
1126 2 11.338394034390022 5.639951842524222 25.356291235267836
1127 1 14.140078755259232 8.434092112579643 22.53398575692942
1128 2 11.325672323575935 8.471263102016046 22.53458808226513
1129 1 11.283950334958712 5.695331885297312 28.164721409960375
1130 2 14.105188842342566 5.698564519234318 28.196986900461386
1131 1 11.218475290253734 8.446040710807203 31.009730391676257
1132 2 14.076258200340543 8.540305073206813 31.029751915077547
1133 1 14.103814271041974 5.690675054233285 31.034464653400466
1134 2 11.209551198447073 5.664923293802982 31.040249463098124
1135 1 14.127732226113523 8.511968542368075 28.278714384128794
1136 2 11.329857745442412 8.402865868889526 28.172956328950203
1137 1 11.228909022994094 5.617136236548491 33.8585215295479
1138 2 14.041018326684007 5.6621003800008225 33.78998004790315
1139 1 11.22922606025599 8.397667767877751 36.634798575230455
1140 2 14.110355655834763 8.393647741337576 36.710352765207894
1141 1 14.079862863864847 5.6851411038290545 36.62789407981704
1142 2 11.349818661454355 5.686042314190586 36.641165561793144
1143 1 14.034688137791294 8.438640441779077 33.89882273728227
1144 2 11.30564114405411 8.485702790702035 33.88458944263516
1145 1 11.316020256168516 5.635421520483974 39.54460387872711
1146 2 14.134871556508477 5.708892350245293 39.50388627429968
1147 1 11.31344468059471 8.515377882984529 42.30001464478266
1148 2 14.044422119082729 8.458207749267059 42.30509772522309
1149 1 14.150555986788515 5.669284583053955 42.277565312626095
1150 2 11.311360111556466 5.599569464585597 42.23303085567037
1151 1 14.133691238071 8.416780537368632 39.524020098473066
1152 2 11.249073734792216 8.498975199695128 39.44393670164297
1153 1 11.2393772037105 11.24136093949807 0.05183817402499857
1154 2 14.013495491179471 11.286001820578642 45.08720681754253
1155 1 11.259360399196522 14.1742328214307 2.7914586210135703
1156 2 14.07950677651131 14.05699775925742 2.768007379528632
1157 1 14.08516909742815 11.237893046293532 2.862444850694554
1158 2 11.285960429946076 11.253216490279373 2.863212852323668
1159 1 14.17683317349722 14.101327905768871 0.05475734203825678
1160 2 11.33560748782032 14.112779120716294 45.10224059541864
1161 1 11.30575832825641 11.318177903684063 5.70100812854004
1162 2 14.154801183931859 11.295193488675027 5.560987386989893
1163 1 11.236690382118338 14.042298706048546 8.47918010083385
1164 2 14.065764725434839 14.144947703250104 8.396994256584176
1165 1 14.071120211244159 11.320338074297819 8.475979519689856
1166 2 11.270583511565981 11.21457492108936 8.409380863040663
1167 1 14.048469912080863 14.097337817479064 5.598292672562174
1168 2 11.355187057536485 14.15216675558875 5.628410567569144
1169 1 11.230288744186181 11.250665673094536 11.296988184523265
1170 2 14.100991882109243 11.269989637120462 11.335299804005587
1171 1 11.243332706089959 14.085521107063935 14.158101052090608
1172 2 14.115895827615494 14.16344738090091 14.071099398892791
1173 1 14.039651260631267 11.330984172713004 14.109879476097772
1174 2 11.334257990380909 11.329451539825087 14.148440665617754
1175 1 14.02201401848825 14.092260062306774 11.236847027290143
1176 2 11.254915523931503 14.106625574186836 11.36143124114386
1177 1 11.34263194935613 11.255323410321528 16.918777422696227
1178 2 14.048553187799095 11.230159509277454 16.902722729087493
1179 1 11.234388357390928 14.110111848755707 19.70828671363831
1180 2 14.085185281453116 14.032365485618861 19.79755556084625
1181 1 14.144152939344423 11.31335414294064 19.73667808478335
1182 2 11.219618695564963 11.240243716832035 19.75659219199038
1183 1 14.034184171797769 14.065383901171478 16.975465178972193
1184 2 11.358714301806584 14.072228731005271 16.936079362739726
1185 1 11.238796942258725 11.198739440895014 22.53512102552278
1186 2 14.075865573086357 11.238404007415966 22.60851675488634
1187 1 11.26955455711516 14.025626042787843 25.399022078902878
1188 2 14.115848742225086 14.052671558427495 25.357701777442568
1189 1 14.056926667387097 11.340541432871657 25.357597420949503
1190 2 11.327409568497767 11.242213812015697 25.422498018044934
1191 1 14.100148149863324 14.066659963597617 22.634845914692367
1192 2 11.354198994758574 14.153626166810902 22.54803798672241
1193 1 11.332504777841752 11.339885982906125 28.184392581602513
1194 2 14.103608710550398 11.229104582769468 28.177115506639158
1195 1 11.31960484261221 14.061133206578974 31.03358657984014
1196 2 14.098295922760808 14.173453143343648 31.026230313232933
1197 1 14.014101508861941 11.260658666638454 31.039326660953623
1198 2 11.31137387645212 11.303983500783033 31.085614261317673
1199 1 14.11211814330509 14.009175813796523 28.169325720441197
1200 2 11.295819156228854 14.048792725806752 28.226043195040614
1201 1 11.290269852774497 11.33837663183216 33.81445892020877
1202 2 14.057968903758617 11.23612681439298 33.82336290387095
1203 1 11.335680045995245 14.082584391850471 36.58329705989288
1204 2 14.023178586115534 14.083695343262796 36.702969639116375
1205 1 14.156661864200714 11.343429786038461 36.696085797705706
1206 2 11.30637572243141 11.225891940125491 36.6869922360065
1207 1 14.14857869512774 14.103536610716322 33.864402547769764
1208 2 11.28021513061238 14.141606984128993 33.75865392253254
1209 1 11.250641905827754 11.257458503118388 39.43535395149712
1210 2 14.124210389209544 11.347116498656142 39.474123584159976
1211 1 11.242312967708989 14.11688593376271 42.375691302080355
1212 2 14.105071009609354 14.171968401935878 42.299466166749276
1213 1 14.107659972652447 11.230097546760051 42.31150770989713
1214 2 11.241261054412613 11.236387487143034 42.23476806344676
1215 1 14.114666964147146 14.155796742423501 39.46240090870692
1216 2 11.244932765349152 14.053096696127383 39.53737697703645
1217 1 11.336521206545903 16.917890358191958 45.097001277118544
1218 2 14.030140924882753 16.944592699673716 0.0030803110812862695
1219 1 11.222817100802812 19.702862209638297 2.7888050681584784
1220 2 14.079585167569652 19.69891054745402 2.85559915178629
1221 1 14.060935691668789 16.89925592173093 2.777022912332828
1222 2 11.360224454176816 16.869944192481057 2.8206176260747955
1223 1 14.154845660362584 19.738980696329946 45.10592076895797
1224 2 11.331396835350013 19.765603655272955 0.007918445978845431
1225 1 11.245723022310049 16.934526810803302 5.575942770585399
1226 2 14.160414716270765 16.93146241122505 5.65819034823762
1227 1 11.230021256449854 19.722607173682377 8.513793147964535
1228 2 14.009417845289725 19.727426514720612 8.430174903552508
1229 1 14.033838586127967 16.959697776916453 8.4151953650407
1230 2 11.256025949494289 16.943091344609126 8.416663030832309
1231 1 14.138245262914763 19.779451541093234 5.5643464168058
1232 2 11.267121512516699 19.756202862247804 5.697496581323463
1233 1 11.24029539055661 16.907591718985046 11.33572283133298
1234 2 14.052046325990299 16.950956535908375 11.338767880405852
1235 1 11.196652530538467 19.763793553989785 14.10620025952807
1236 2 14.020387922997555 19.751501081721745 14.080470695959807
1237 1 14.057296124798563 16.9005681814209 14.047439580319596
1238 2 11.318046121519185 16.959133910710456 14.172290666676458
1239 1 14.114081996191892 19.769596624348463 11.201574619232842
1240 2 11.317996007297122 19.703555225083985 11.312927310591927
1241 1 11.23486730839138 16.843655743860584 16.95842104338549
1242 2 14.169786740792 16.95654878862001 16.9008145520904
1243 1 11.217285939704666 19.67217113080136 19.752650431883357
1244 2 14.10695321494137 19.658064299251127 19.73325350677771
1245 1 14.174324441810292 16.918234112144845 19.7377666703987
1246 2 11.223990910789057 16.953292084490023 19.705883147884776
1247 1 14.070540678138558 19.79920463858773 16.867662226853305
1248 2 11.255555950338051 19.738780507774443 16.966490607086378
1249 1 11.360360747039936 16.919041627250447 22.587283796752182
1250 2 14.096121173649975 16.849653179875858 22.606742149401377
1251 1 11.312484064784 19.793281326054977 25.33333975741098
1252 2 14.103949164615894 19.792905609304984 25.441348838242934
1253 1 14.105533404233713 16.94173720359096 25.309523080716797
1254 2 11.26521705237801 16.865039900618058 25.455086219439767
1255 1 14.06416151858637 19.731881789243513 22.630592880076904
1256 2 11.273736860389562 19.789330595766966 22.552011009320317
1257 1 11.338508460539924 16.840961165310603 28.19866100252721
1258 2 14.033340241229867 16.881018246163137 28.166656556406714
1259 1 11.315636135023775 19.7204814031616 31.05573462184282
1260 2 14.145455427969994 19.771795639806395 30.96980323579061
1261 1 14.132361621855795 16.995020859609227 31.058915044861234
1262 2 11.316507142981443 16.92699697994527 31.083400746315604
1263 1 14.111625065071433 19.72486318474936 28.26356472408954
1264 2 11.265761204956714 19.778123768283216 28.290395780979484
1265 1 11.336699731262254 16.89151805090297 33.82895665863449
1266 2 14.136050395029736 16.892003002810103 33.90350586294907
1267 1 11.257494927335397 19.755986994210208 36.708685334272126
1268 2 14.16551933942997 19.738240622151235 36.64848747069719
1269 1 14.084244753076044 16.94565878623611 36.72620375354813
1270 2 11.194289218136241 16.890295856615346 36.64152272384036
1271 1 14.085027190797996 19.798214697698366 33.8743482080402
1272 2 11.346457232947644 19.717490974237233 33.78853963793647
1273 1 11.274213434004855 16.83537105393071 39.50434423897809
1274 2 14.134259317917564 16.849309481609613 39.50387375223313
1275 1 11.362818594689854 19.692593887443316 42.312431382865334
1276 2 14.031409359668707 19.68916680626596 42.30664917148982
1277 1 14.155323840864465 16.968786884388706 42.303451257280706
1278 2 11.307187685160782 16.84677334729224 42.29067428094968
1279 1 14.078679350732568 19.788741627865363 39.413404349080295
1280 2 11.226933741573367 19.684666416969637 39.51414389468998
1281 1 11.31408080842453 22.52667656193919 0.08518634529228868
1282 2 14.0857546723583 22.49659525422314 45.04984997573679
1283 1 11.220000695630729 25.384706096712524 2.8398992803034036
1284 2 14.116901627995643 25.470290128028655 2.808063508756052
1285 1 14.062666210860412 22.611746649560967 2.865327812131918
1286 2 11.229969970470835 22.556237774451375 2.788749129393217
1287 1 14.150564792655592 25.34852215354809 0.07195486205981279
1288 2 11.322864497153363 25.466440223721634 45.102024196979414
1289 1 11.328082757449277 22.62472047565273 5.655034338711584
1290 2 14.173487590916894 22.580048080939566 5.646493004353494
1291 1 11.322667144875277 25.364560516615867 8.483964068173517
1292 2 14.057285846819983 25.414805716308084 8.507519577176652
1293 1 14.131770923218333 22.608258288181432 8.437917500034708
1294 2 11.18962082209719 22.575418709278253 8.483622840902795
1295 1 14.097407736665053 25.462123955697532 5.64423777379179
1296 2 11.232931509621116 25.35373087632185 5.657461707601371
1297 1 11.275381780016092 22.620478127504548 11.325423488470978
1298 2 14.158257952261234 22.614547895224398 11.331810216285715
1299 1 11.275602802017952 25.43896101112896 14.142570941110439
1300 2 14.071478504507411 25.39836479273286 14.14275494875197
1301 1 14.157747664064635 22.579071790764374 14.13446812870812
1302 2 11.217098225501264 22.551914173872767 14.10029233326665
1303 1 14.04715724983583 25.379925748820238 11.266458622254868
1304 2 11.213554112252638 25.41232849517749 11.242195182151962
1305 1 11.25016629391869 22.634300819377977 16.870558877375483
1306 2 14.182308486478894 22.58770264064705 16.871100186921215
1307 1 11.23159615963865 25.382711329576605 19.71559365260377
1308 2 14.044211307951647 25.319922620721123 19.71549635296336
1309 1 14.070970843612615 22.569857477603794 19.663674273720698
1310 2 11.245570067824975 22.519474279110828 19.69091793014605
1311 1 14.140002299875691 25.38834383755353 16.98595828523324
1312 2 11.316795419429257 25.39724044382556 16.97837057858567
1313 1 11.33204853135758 22.48801645944485 22.524278729058356
1314 2 14.059437471317116 22.611290159461262 22.61055439941696
1315 1 11.204167790112308 25.398548891982422 25.40198780503675
1316 2 14.054184305941861 25.320473119282386 25.409057828609274
1317 1 14.07757093131555 22.603057631765253 25.43129871972991
1318 2 11.29614944920175 22.498431626539347 25.341758917478245
1319 1 14.032276797680755 25.36114693739098 22.527065501362927
1320 2 11.356998427939326 25.411760661595622 22.547757613356318
1321 1 11.242558255421335 22.615403868671002 28.17309351250193
1322 2 14.045864085535985 22.539797384587096 28.161301329681276
1323 1 11.33503871927129 25.310815327434014 31.054523518941405
1324 2 14.168339766697738 25.33823912195089 31.014646719188793
1325 1 14.180304859100444 22.54872769979558 31.00920570008242
1326 2 11.25454775697426 22.49870893189381 30.955134690355635
1327 1 14.14273566170567 25.43068953076284 28.163142930869466
1328 2 11.347366517248417 25.435318963413394 28.18962845396601
1329 1 11.200877173807188 22.51115007845018 33.830310008689565
1330 2 14.090558201725091 22.627110072693448 33.79008970245815
1331 1 11.268731285382957 25.36103515663424 36.740829396138274
1332 2 14.04956439050587 25.3195607141382 36.65592347770939
1333 1 14.051825813690835 22.61730797735854 36.717386376609
1334 2 11.21757345995406 22.621100191337426 36.683584841915746
1335 1 14.095711244681462 25.41590039289204 33.88717265683154
1336 2 11.192198221035698 25.338680326261315 33.8522752309059
1337 1 11.344257251472836 22.575447118626442 39.489125833259415
1338 2 14.148290185575744 22.554274746699654 39.503574621895105
1339 1 11.228402562064748 25.387405607611942 42.369805776509935
1340 2 14.046085003909017 25.330464688290025 42.29010134688137
1341 1 14.139791101240661 22.516192504647186 42.28424020174116
1342 2 11.30611681047053 22.502158338205444 42.34983847183678
1343 1 14.106666877703903 25.461416667386374 39.441508358953286
1344 2 11.336717023692612 25.335375217684803 39.49952534989431
1345 1 11.250181494773374 28.174394339336292 45.05079758307885
1346 2 14.044475726434428 28.198903806558334 0.0462867766423532
1347 1 11.240995057189163 30.95519341392334 2.885200864869381
1348 2 14.07458265617537 31.000485621572214 2.772129920462461
1349 1 14.064855954574961 28.24078485173714 2.7877658633827034
1350 2 11.29638122148536 28.170072904069812 2.7496049466293755
1351 1 14.115056060158931 31.060075705688345 45.06073000289503
1352 2 11.31370836328487 31.095963968116195 45.09041131351072
1353 1 11.253850645236383 28.20162301478374 5.706735417682199
1354 2 14.023546360778628 28.165035127103422 5.6680305524202375
1355 1 11.20631267894108 31.01159490942341 8.452937939381684
1356 2 14.071801960834081 31.024814560385156 8.507301010695361
1357 1 14.02926426048268 28.145096321293718 8.44569353183014
1358 2 11.245260683795726 28.1826808448571 8.41731015745386
1359 1 14.052574179007564 31.028509009600743 5.661277925362884
1360 2 11.358497695811096 31.012725251594322 5.6831874725252405
1361 1 11.25908980509537 28.147881555679565 11.325767665689767
1362 2 14.075090541990468 28.265264652470446 11.308993374331529
1363 1 11.250988853592599 30.987270177969364 14.06920194843368
1364 2 14.061651615233613 31.072778253066314 14.093454668191939
1365 1 14.17668377572929 28.22940867648438 14.09041740324747
1366 2 11.24919341660674 28.129312725332905 14.13903315611138
1367 1 14.135705952577135 31.01361047030453 11.327867275335226
1368 2 11.27553462144524 31.01834502518893 11.358921505210876
1369 1 11.281830507334602 28.133130325723236 16.867203758653115
1370 2 14.03666408599163 28.197121204822537 16.919263468640935
1371 1 11.33195551346215 31.04745204809732 19.70821307718015
1372 2 14.132147319973368 31.031689217133195 19.80244433666207
1373 1 14.15887324355131 28.193246917197534 19.808002016375575
1374 2 11.26033792048742 28.149447461125717 19.75276022103235
1375 1 14.12428624428406 31.06559874887824 16.918731257011263
1376 2 11.287487885011284 31.11352827431254 16.910650956538273
1377 1 11.314229222055264 28.16841665377416 22.533085491499648
1378 2 14.078756228450956 28.28534698555447 22.552924348839284
1379 1 11.238225996058489 31.043945805612296 25.345328343350495
1380 2 14.14834128941814 31.054082678927617 25.436715986911658
1381 1 14.163521251830204 28.25548175441155 25.416250103811098
1382 2 11.231609515109913 28.18419736897471 25.382204970307797
1383 1 14.118250674731561 30.97040485310525 22.492604355921927
1384 2 11.321475033895828 30.985798203071184 22.591541833871812
1385 1 11.3449081724397 28.16758732364367 28.244338234212687
1386 2 14.09612837559713 28.249788252094103 28.180929830870333
1387 1 11.331345172811098 30.9927736823457 30.968168046034645
1388 2 14.151039571020554 30.995972353376633 30.983352992615917
1389 1 14.102590890677005 28.176769841166262 31.108193356191535
1390 2 11.220879766627194 28.170211854656124 31.0740776591252
1391 1 14.073189343448021 31.058571589024588 28.240086294909474
1392 2 11.319748122808328 31.06204655850125 28.185534813234874
1393 1 11.242065094984854 28.151585011489406 33.839113196639104
1394 2 14.089941344436806 28.182670058658314 33.74814058995829
1395 1 11.341436081281051 30.94997837356515 36.634603211049686
1396 2 14.140870861919568 31.052033862312243 36.64942880131917
1397 1 14.14190605166511 28.18546488198377 36.74726199888498
1398 2 11.329061304199927 28.16496281903947 36.70015080437319
1399 1 14.084925943956918 31.04651691352974 33.92423923735799
1400 2 11.242746582251755 31.08344243456968 33.82796464903399
1401 1 11.341978016357404 28.22508460987315 39.44877549499806
1402 2 14.027088067107908 28.134314069700743 39.495951618194944
1403 1 11.229096084916218 30.9968460726266 42.28846426770775
1404 2 14.040377487908472 30.978431130093547 42.35646243674648
1405 1 14.181242286537216 28.233893367982287 42.34684773026519
1406 2 11.341511187453198 28.14950556972476 42.32134502430469
1407 1 14.017336739181077 31.023964852111742 39.459089387210824
1408 2 11.312360782269769 30.971415875430207 39.45201990209951
1409 1 11.361173740733797 33.8661744988268 0.049247176777478606
1410 2 14.072767147545804 33.78980140303336 0.016657987701878433
1411 1 11.285223650876219 36.67774271430707 2.870416617343337
1412 2 14.128978871333763 36.607510380235034 2.802694142073548
1413 1 14.011257824779618 33.86199973895801 2.80128851544402
1414 2 11.22645867465687 33.85514602978702 2.773425837658152
1415 1 14.124137589986846 36.67716719006939 0.053496979272889336
1416 2 11.232313399852364 36.72047042886075 45.09142884285918
1417 1 11.249417503994769 33.8872060028124 5.613036436387031
1418 2 14.166695510608218 33.82563967896435 5.669274627348923
1419 1 11.259669915548029 36.623186923016995 8.417132479404565
1420 2 14.081702874433379 36.67078837435312 8.521441386909682
1421 1 14.043361091267474 33.842033041905744 8.440776169198315
1422 2 11.276036445907925 33.791901267491426 8.395095098699963
1423 1 14.088300816860977 36.65919516169482 5.700010763164216
1424 2 11.353995862178657 36.63999990370227 5.57605293643777
1425 1 11.209437192617054 33.87893361402477 11.32968813948049
1426 2 14.17177999958683 33.83092305266035 11.293459098015939
1427 1 11.26211558813495 36.734353419763245 14.148459004445579
1428 2 14.053624902417333 36.67012551738339 14.040168816825979
1429 1 14.106850952875735 33.75280673752671 14.112090487474834
1430 2 11.334382398504893 33.897635206802384 14.043497603160702
1431 1 14.102425209035054 36.59660696682061 11.331835514147985
1432 2 11.306004885476348 36.58751396689381 11.221653827251309
1433 1 11.298306996550984 33.78439479953734 16.922251959276338
1434 2 14.140323159459184 33.76646112546521 16.890418259537352
1435 1 11.28449825435957 36.68875451015397 19.677859617243598
1436 2 14.08307070087295 36.684134215812065 19.661320362160282
1437 1 14.126779785918444 33.876531813034504 19.79181264168377
1438 2 11.2246243511868 33.82922536936804 19.724805579677927
1439 1 14.173441738994836 36.69377177133909 16.971839664365433
1440 2 11.303475250138238 36.61133259746985 16.93341428845285
1441 1 11.190554153955723 33.8581493034884 22.568264570282768
1442 2 14.087523478032596 33.85649543034261 22.609438545908123
1443 1 11.233881683829603 36.681154771675935 25.465917462180922
1444 2 14.16262641983631 36.69650753477145 25.377703670437214
1445 1 14.04945369116214 33.89563637234027 25.363939062281702
1446 2 11.287996416749214 33.780727144724914 25.309340248450354
1447 1 14.066522401724495 36.620025789557936 22.612918610262486
1448 2 11.322441572971314 36.66752379179358 22.52410284475896
1449 1 11.27771935116569 33.91652230483342 28.21076415327277
1450 2 14.081040645621833 33.76071585374723 28.251316765004685
1451 1 11.269426120376197 36.71674553911605 31.068024023216303
1452 2 14.136545956098741 36.665350530739246 31.05829474753586
1453 1 14.11730947809596 33.827180882988 31.092926618798824
1454 2 11.275784970819394 33.81568565356167 30.94372024804772
1455 1 14.088712197393024 36.579427684693584 28.240069219608767
1456 2 11.254786614645305 36.631372262912556 28.129172138078093
1457 1 11.31291835242808 33.80388902195815 33.923442535533276
1458 2 14.064690391103188 33.87891952953485 33.86810220670195
1459 1 11.350252883430949 36.64050906300448 36.70838435962632
1460 2 14.010301195043313 36.671596928034305 36.63407174382432
1461 1 14.134841575882984 33.85095070029219 36.70915093509556
1462 2 11.362780036044189 33.87716008134223 36.64653212768636
1463 1 14.117284526154885 36.61500599021242 33.77305878180776
1464 2 11.217906775433478 36.61807523651732 33.780361776300936
1465 1 11.345854711742653 33.834746184153346 39.47127142046519
1466 2 14.141422311254374 33.8697347925553 39.45632702510163
1467 1 11.329369914983449 36.7185087624722 42.252704045086936
1468 2 14.09052161019905 36.71212099012772 42.366047824139955
1469 1 14.06773310692755 33.89283568521772 42.32429819489601
1470 2 11.24063842729218 33.82982922883585 42.37992435519608
1471 1 14.109088201653625 36.617048465459206 39.45183067163465
1472 2 11.375222849337693 36.656919601836755 39.49090547632352
1473 1 11.231631593114958 39.544224760480674 45.115376229729584
1474 2 14.083864737620527 39.476773141096956 0.08103461847033606
1475 1 11.282119874866067 42.32452788244021 2.726883924689038
1476 2 14.072767557533503 42.21924765195326 2.8616430851349612
1477 1 14.024117396710286 39.43007752995722 2.8342283897375498
1478 2 11.29627793676585 39.57189088833455 2.8211364505996133
1479 1 14.157661217563554 42.26120850141056 45.06595258152444
1480 2 11.216511333224952 42.29491401111305 0.023163532470693603
1481 1 11.330296583403381 39.523868484089576 5.613246461224724
1482 2 14.11374736931538 39.530089754585354 5.578152968961173
1483 1 11.238375135228376 42.22148541281599 8.497617131625178
1484 2 14.098010601000908 42.224114786482104 8.504453654519766
1485 1 14.081774058865864 39.530499235481564 8.450003677859044
1486 2 11.297726398057952 39.405580201813926 8.484283294364085
1487 1 14.087762026055545 42.2453157160318 5.581458280067525
1488 2 11.259271564577714 42.316684032889604 5.594888295598642
1489 1 11.330135895973806 39.47258409983082 11.289978216699874
1490 2 14.152042887635202 39.42539152683344 11.278033993911903
1491 1 11.271329501812932 42.26484464828301 14.151075378584745
1492 2 14.108973043068113 42.35528913109484 14.162897955126713
1493 1 14.126254254287373 39.53065101810404 14.026390372415532
1494 2 11.224337522255885 39.54177713889436 14.083919332990199
1495 1 14.135324320357345 42.3595178056635 11.299935329657968
1496 2 11.302416276500493 42.26631835956825 11.243528292081239
1497 1 11.240790348709261 39.459403253881234 16.831767091188716
1498 2 14.089223608168819 39.43053063806957 16.946620970363533
1499 1 11.29704736203791 42.319161395525704 19.663650642932414
1500 2 14.079276782870254 42.37684841550168 19.702330751571605
1501 1 14.150060221894716 39.42820921334891 19.731051953934294
1502 2 11.348649316140374 39.49738781456847 19.774119750324687
1503 1 14.098830607019025 42.2631152915337 16.885097743425938
1504 2 11.3101359519075 42.310912458118565 16.972868245549147
1505 1 11.241143931103279 39.509042597986415 22.50324759371008
1506 2 14.125477630356315 39.40021039931611 22.56143869483763
1507 1 11.2356740524758 42.29352804470108 25.43071145379658
1508 2 14.134328241512252 42.35555847052415 25.309660266174916
1509 1 14.018794925209095 39.445781328448554 25.387954949200868
1510 2 11.242862096706022 39.491785572682055 25.321499149406076
1511 1 14.09280413123756 42.36113051399438 22.583068321003246
1512 2 11.240007387920006 42.331968763444195 22.553731704559702
1513 1 11.241535717910724 39.549331897130635 28.2234114503508
1514 2 14.05248582292746 39.46445769288042 28.237405298080088
1515 1 11.27477718557652 42.38972326820431 31.05415043217717
1516 2 14.135647536110055 42.23742109512919 31.00206172538966
1517 1 14.150034883085496 39.52554635716134 31.026508623887096
1518 2 11.247422395353329 39.435930057401855 31.006635186503832
1519 1 14.092567892937327 42.23180165385855 28.132293132002864
1520 2 11.308802690006994 42.364413113823204 28.221077801283226
1521 1 11.285308427990586 39.54214667941716 33.785325977510794
1522 2 14.083070316178254 39.4386389555668 33.78546936462443
1523 1 11.233739082360033 42.34822584653463 36.68851376293647
1524 2 14.09434707663143 42.33735457782709 36.62356654682781
1525 1 14.090387178453618 39.43197534297152 36.745998427410164
1526 2 11.257938437607331 39.51827676103395 36.6165780589918
1527 1 14.180875794598935 42.34031698123052 33.87577873644561
1528 2 11.293011932095293 42.3711478344954 33.88251280210935
1529 1 11.308647372436727 39.4141736224066 39.53628305728153
1530 2 14.171079598258338 39.52525030035111 39.46171581908578
1531 1 11.282949184997772 42.228568434760554 42.26807598746714
1532 2 14.149654284625282 42.29720352197477 42.286444083799054
1533 1 14.120423698374198 39.47209483838679 42.22766929553841
1534 2 11.335658728643354 39.43258599698877 42.307253638507866
1535 1 14.13635791315823 42.30839685603818 39.52109181748506
1536 2 11.316449215383713 42.256298476871635 39.4299599355984
1537 1 16.92624621515666 45.053641743203904 0.029889989937423273
1538 2 19.828830778681137 45.10766583901528 45.113461295349026
1539 1 16.97213236747071 2.8442656246140428 2.8356861150267894
1540 2 19.77551349432689 2.826565973460132 2.877560947198968
1541 1 19.767308019301648 45.05228844213658 2.842080181440058
1542 2 16.937699857706146 45.05523837277775 2.869207482780274
1543 1 19.73815163337225 2.7977714816969383 45.03667670788305
1544 2 16.918522042594347 2.8212652601795787 0.06981048215930342
1545 1 16.945981245845488 45.118123559760626 5.561042883752669
1546 2 19.724723847610502 0.027940592051539086 5.556710167698843
1547 1 16.82417524856196 2.819852333297779 8.452859466639069
1548 2 19.75953261871863 2.8722700292759753 8.45093102382672
1549 1 19.73058373304559 45.104165961464425 8.373579859666721
1550 2 16.987648004176517 0.018912623050761426 8.499678321967997
1551 1 19.74243549549137 2.8731244429490954 5.625857752819042
1552 2 16.95971435647476 2.785730600810487 5.708394163987876
1553 1 16.87383726184031 0.028425828869874076 11.290869518186534
1554 2 19.783488608702914 45.10668269258517 11.243725701903633
1555 1 16.840966852809395 2.779234128154747 14.080051086957498
1556 2 19.70623042987397 2.8095116812880616 14.034214754463669
1557 1 19.724628771725655 45.1129193564339 14.178508834337661
1558 2 16.983135208332378 0.048881875039557175 14.130536382057194
1559 1 19.738510097072414 2.735291846535425 11.263334018198563
1560 2 16.893708494614092 2.7732589657469493 11.33799607467191
1561 1 16.906900713707653 45.07892796467416 16.834006770445345
1562 2 19.82030138489475 0.05688111486865417 16.91748490557203
1563 1 16.966268137516806 2.809479309857428 19.819142404204246
1564 2 19.76922148931795 2.782570780555704 19.687457342148214
1565 1 19.67600614252037 45.102840662800766 19.798479683568974
1566 2 16.834682025676646 0.022459869657133463 19.762133463687483
1567 1 19.707206311705406 2.735072210890399 16.887413614239154
1568 2 16.88011478956124 2.857737033092986 16.953397459745766
1569 1 16.894398005433175 0.05374714003854631 22.4849708257361
1570 2 19.74252090693292 0.07043836892336622 22.539808294679922
1571 1 16.915495440430135 2.7397737824224038 25.36883408089946
1572 2 19.757558037601672 2.8027421785770525 25.43307521857105
1573 1 19.78863036121003 0.005886986911831572 25.450647846784893
1574 2 16.965819163823664 0.04641749019621603 25.343368561196975
1575 1 19.68559694883808 2.821983061303348 22.50275863772248
1576 2 16.970270679376156 2.772111707592239 22.565176859220866
1577 1 16.870934064364025 45.08392381606672 28.24324271702132
1578 2 19.720299631760238 0.02064732271489676 28.280592593070647
1579 1 16.885423231734027 2.8636014735923587 31.0646142807608
1580 2 19.742216989526575 2.7409593469461995 31.06720060122488
1581 1 19.8295482235967 45.1055502682872 31.012603336295204
1582 2 16.864439638194792 0.036755474663284035 30.99387089163577
1583 1 19.794511118997693 2.850895089103651 28.27473318628701
1584 2 16.932990433974556 2.7932918105322986 28.271155965420792
1585 1 16.964615332444115 0.00075039196135748 33.816359678903105
1586 2 19.709489154059984 0.04524289079623518 33.83349926685065
1587 1 16.9500278479991 2.895647822817463 36.68828983770737
1588 2 19.79431214850787 2.8082656527965906 36.7331595283776
1589 1 19.789327131270863 45.11590290144326 36.676943972001645
1590 2 16.904467568895722 0.013255374464048453 36.723952246873225
1591 1 19.77793377509177 2.785989520215432 33.83529051413458
1592 2 16.8596198625061 2.805401520437067 33.91392769349777
1593 1 16.98028995352747 45.05374836072471 39.50806165484726
1594 2 19.750234526371333 45.043424944861314 39.49961970902943
1595 1 16.935676202197044 2.8463843285705415 42.24965204899632
1596 2 19.718875778525735 2.8394429571633624 42.229171146664505
1597 1 19.832142035101437 0.022243551400476166 42.2714024712716
1598 2 16.979307839247095 0.053241484279228125 42.28358163511664
1599 1 19.721374481575083 2.835815104341702 39.534868801920034
1600 2 16.936038775565578 2.797792595228003 39.4102314269168
1601 1 16.956516110048128 5.581614566164381 0.029388432999808013
1602 2 19.78744874538721 5.662955357011051 45.097079378330974
1603 1 16.970593809352707 8.461937342600041 2.8646644240282684
1604 2 19.772376098105322 8.531298095944893 2.796558590076558
1605 1 19.78935999876227 5.645973673617114 2.801761131692898
1606 2 16.880131407929635 5.643984462270661 2.894056080768481
1607 1 19.78743167975688 8.45671886828563 0.05094490600077292
1608 2 16.933577438657828 8.404852174590502 45.11652094019749
1609 1 16.965393039173097 5.70738451527008 5.658325027728161
1610 2 19.745156852470462 5.726648987466507 5.658990593847161
1611 1 16.848400582892047 8.45127654540364 8.461003842988584
1612 2 19.687581235548155 8.514264775282232 8.478331254386262
1613 1 19.712503190836387 5.696122543694985 8.443671387362887
1614 2 16.942260044371917 5.630421143714963 8.395464920259599
1615 1 19.78812774463336 8.481278412166851 5.703141164990347
1616 2 16.97730351087623 8.462284350741015 5.634076555364184
1617 1 16.83068275274164 5.656790577620986 11.259535220204047
1618 2 19.675904744794444 5.5910860228647685 11.31964615616707
1619 1 16.88991149421665 8.431826377931195 14.065682528560718
1620 2 19.73817303384532 8.438671498853122 14.05176134388719
1621 1 19.702604974660726 5.672953085618086 14.117009536069784
1622 2 16.91898250213942 5.62171146778235 14.147603363730356
1623 1 19.724920672551598 8.48505768698994 11.235144110111387
1624 2 16.97675622203362 8.496639257637842 11.233866316250074
1625 1 16.92729425035633 5.549984208961315 16.89210370063274
1626 2 19.68686868446283 5.6478907165934205 16.962025482481675
1627 1 16.85094902472337 8.41877127127449 19.773129746618
1628 2 19.676545272777215 8.46440796215111 19.723108689765898
1629 1 19.740551724297703 5.586846619674365 19.71906657497745
1630 2 16.90564487102141 5.672421875312953 19.68310832522331
1631 1 19.65658536047552 8.439861685493321 16.88742939914409
1632 2 16.936497606460325 8.404296190847491 16.92363280607631
1633 1 16.85582579026065 5.642440770625677 22.614694257119737
1634 2 19.714703133840253 5.618611427011544 22.618024802835
1635 1 16.89353992506629 8.426875710459914 25.330290289200544
1636 2 19.680430048510242 8.450355445329802 25.346621569955218
1637 1 19.80538783140458 5.6143179594399415 25.35048701137689
1638 2 16.911599429450156 5.704542447047998 25.352998279996584
1639 1 19.762841104202135 8.487706253575539 22.48247463196081
1640 2 16.918020004179265 8.42817060504114 22.492366018339183
1641 1 16.878267894069054 5.715627760127297 28.1928113768725
1642 2 19.69782830850717 5.627899253469704 28.249552031189047
1643 1 16.84387893898857 8.46279314557336 31.02518295691989
1644 2 19.788467436226448 8.423106494187381 31.083841788584515
1645 1 19.71268105309897 5.679605195503202 31.079290308892737
1646 2 16.966396636408714 5.687827470509275 30.99320436691252
1647 1 19.80206665967467 8.39405177363669 28.17700665298668
1648 2 16.9358282485682 8.380906311633874 28.203681031883235
1649 1 16.960670759158035 5.711897839294356 33.825579104628304
1650 2 19.808045811399726 5.6426609559177905 33.885804924591596
1651 1 16.958391114611402 8.530267213881956 36.656146757696376
1652 2 19.818568728763083 8.446756320588067 36.6350833897453
1653 1 19.709394673003857 5.676441374289062 36.62544346265709
1654 2 16.836666933297725 5.628807424120156 36.62238345424281
1655 1 19.81142204997538 8.468148421692794 33.90891808223981
1656 2 16.86770806217659 8.433430338388037 33.890296216632244
1657 1 16.869069480741967 5.585536337856407 39.5227574118949
1658 2 19.69917563074667 5.599029808074614 39.525043241629284
1659 1 16.903669758326405 8.467965087975893 42.36593141925724
1660 2 19.780049791491816 8.487598362014122 42.364131159518735
1661 1 19.7290543765829 5.612231146918721 42.35479756546881
1662 2 16.934594800568522 5.62986158611689 42.218156370102626
1663 1 19.805311631017336 8.512265018811258 39.43559936610358
1664 2 16.94142572237013 8.509975596252664 39.40820553446066
1665 1 16.96779009898028 11.294189073644695 45.062601695405554
1666 2 19.706480066243383 11.245505268565058 45.06179545930998
1667 1 16.90300469358142 14.008333532573076 2.8112703483692574
1668 2 19.820248228847355 14.115305587164187 2.7891014846922504
1669 1 19.790005238853922 11.348879929785632 2.872169970588155
1670 2 16.964670963812654 11.239097578836414 2.861706232138835
1671 1 19.70634505962863 14.104686903944078 45.074508008596936
1672 2 16.933413322628205 14.009221486264583 0.009948554405944277
1673 1 16.978199014770855 11.243924463580374 5.642183890261002
1674 2 19.771478619037154 11.27299749745177 5.733297383023079
1675 1 16.88405382351332 14.141377156887781 8.472965547120001
1676 2 19.78325403374016 14.095327318265221 8.512006540781934
1677 1 19.67707743014605 11.322244484184516 8.432108692737245
1678 2 16.948736006123895 11.337931447871906 8.517925877061538
1679 1 19.778474416178906 14.119232990430541 5.581592889640409
1680 2 17.012127837105776 14.127610744104224 5.664914973656286
1681 1 16.829816503992845 11.277997832038865 11.312011210456182
1682 2 19.764808773969058 11.2901543560104 11.343488158017317
1683 1 16.887895033622296 14.06031852081111 14.041325006593695
1684 2 19.763500066114407 14.14914741693768 14.118390041746439
1685 1 19.743419244612145 11.23066150066025 14.111527806212614
1686 2 16.90722486283717 11.351425980242878 14.048921589140932
1687 1 19.697996344457962 14.113407439414072 11.209219643133144
1688 2 16.88077817707447 14.169600792719548 11.301823473822237
1689 1 16.90441507708263 11.348872489668459 16.935891390173165
1690 2 19.756287548150492 11.247745135657045 16.997986989752768
1691 1 16.848568896386624 14.153790081482141 19.780995050470967
1692 2 19.74133799640905 14.164211753902435 19.748784948568172
1693 1 19.76808786160511 11.211674410593188 19.702529940846706
1694 2 16.978037587274898 11.337101788242332 19.77076215239403
1695 1 19.756342598910123 14.170227883371311 16.907376573359482
1696 2 16.937360801012595 14.029780644963155 16.958996002967094
1697 1 16.911103041839166 11.333289363473119 22.580309837301744
1698 2 19.754366053524148 11.224619140321566 22.513896694233868
1699 1 16.909048793572424 14.034499814039242 25.32681289134866
1700 2 19.72037525298241 14.054489537969795 25.426367991296978
1701 1 19.758719196687906 11.351052388906089 25.334616537306783
1702 2 17.006555340334494 11.257427799855476 25.387941810526183
1703 1 19.79152825423764 14.128745556613334 22.519268557030976
1704 2 16.962346276174422 14.175768754620524 22.581826743971448
1705 1 16.97232097643811 11.204158830934947 28.197443368789518
1706 2 19.711769951470185 11.203257077837753 28.153781575629946
1707 1 16.90045207105925 14.063049824884963 30.98624254477149
1708 2 19.71612387138027 14.147525795029152 31.06989565433288
1709 1 19.791550762872674 11.263644374205898 31.02759129151712
1710 2 16.92854557339846 11.240375823029611 30.963787509790805
1711 1 19.775932967124167 14.137967432487486 28.280524960890403
1712 2 16.869975035634496 14.163402973577503 28.176882980793597
1713 1 16.87396605447559 11.319556413253732 33.837407567596664
1714 2 19.784063026261855 11.231093695714067 33.8712588489567
1715 1 16.893605823891253 14.079912332857731 36.60348896395681
1716 2 19.777035103279264 14.07550121837798 36.736816483357636
1717 1 19.75499642692664 11.227113418184516 36.60374995877826
1718 2 16.88752026959295 11.241602611804558 36.67448783419124
1719 1 19.6917145308308 14.07323650658767 33.84013468285277
1720 2 16.8839364734569 14.109283502144947 33.93180517932342
1721 1 16.94772182540231 11.217038411441376 39.479206195086995
1722 2 19.656860180277445 11.263211714147943 39.50412486147943
1723 1 16.902761847265108 14.12137057547228 42.36829738813994
1724 2 19.769307830114016 14.05411941001759 42.285691400810194
1725 1 19.731397037926673 11.35121337016011 42.27388694969104
1726 2 16.981728670274848 11.301791978492993 42.26841166348619
1727 1 19.70640824433274 14.070333678196878 39.41663929394355
1728 2 16.905537891407892 14.172906347612344 39.50196651607963
1729 1 16.960317848996556 16.89965229644298 45.0924455002395
1730 2 19.723243315997372 16.883534891557886 0.07906523058432645
1731 1 16.903427601900447 19.799415482944237 2.838831942364423
1732 2 19.716107819132496 19.783197447825945 2.8443817581964495
1733 1 19.789487863085338 16.91799492842839 2.8559314558572053
1734 2 16.94940112895282 17.010315285879233 2.8056160587014904
1735 1 19.707491078185456 19.657300414726425 45.11145424525175
1736 2 16.93325935184546 19.806827271859238 45.079422868761775
1737 1 16.827668550773115 16.89599331871391 5.628157381735738
1738 2 19.72203875733625 16.976511506555497 5.568885643319065
1739 1 16.867828632082386 19.714939135156563 8.480841149517245
1740 2 19.81797690257238 19.74502047863086 8.51840817025294
1741 1 19.72747343091035 16.855222805056624 8.460137633179002
1742 2 16.89158380925915 16.861042641973164 8.437767558497123
1743 1 19.67597486905693 19.7357466416808 5.640396756398263
1744 2 16.92670366303846 19.834622905241687 5.656525577713121
1745 1 16.932191636369545 16.98767308819558 11.334252803113397
1746 2 19.675652071406322 16.950391616134464 11.218874875320246
1747 1 16.921737575470644 19.799967147706365 14.105002893859181
1748 2 19.725688018180936 19.686073899493454 14.115895181931059
1749 1 19.73265590530971 16.98767617480938 14.160248985996095
1750 2 16.956445828903686 16.975486953314714 14.093278960058775
1751 1 19.78718319562106 19.682827367435358 11.319710177937793
1752 2 16.890748733677484 19.691920922505766 11.273980451168137
1753 1 16.90763382490431 16.95939512716204 16.886517637794217
1754 2 19.66387400499456 16.92814372483938 16.950346641302062
1755 1 16.863456519985878 19.748498315160226 19.65904872635571
1756 2 19.744849983963128 19.738822161252646 19.644167452152345
1757 1 19.776621089189625 16.90530548159138 19.6641970689628
1758 2 16.968980396013784 16.932202004848786 19.728392730797342
1759 1 19.70450077265797 19.75499447791421 16.96947683532716
1760 2 16.930490566574857 19.78621464656994 16.841926023776814
1761 1 16.900863677235066 17.012221824730734 22.57043981013728
1762 2 19.77817014463776 16.902084352863216 22.64219594123456
1763 1 16.893605161434476 19.70748949033943 25.326753006682235
1764 2 19.764140163227818 19.728975282293135 25.44842360399635
1765 1 19.712640229638417 16.82893842382865 25.382451168375862
1766 2 16.875060688971317 16.887149177087572 25.433010292769605
1767 1 19.789998934938104 19.689017537710452 22.55568448323395
1768 2 16.87817783074721 19.6920567409636 22.579251607737934
1769 1 16.979376334519078 16.9405828001534 28.14566016828679
1770 2 19.68254363166657 16.87629631749315 28.171980457547043
1771 1 16.866935927272245 19.75842341475141 31.012064096069302
1772 2 19.709871547555363 19.690338782636353 30.987295637681953
1773 1 19.68815571283033 16.934916363088522 31.070864819122942
1774 2 16.861480740701992 16.944948874349567 31.049711083472552
1775 1 19.706539463334924 19.706108030090412 28.28191241407154
1776 2 16.901837695161568 19.784711026851443 28.173421080560615
1777 1 16.90277216265561 16.833738233346303 33.826874883872144
1778 2 19.680350670046227 16.871482701477845 33.86444472071988
1779 1 16.902614299794056 19.80763445467177 36.651701566076326
1780 2 19.77897258297916 19.757745612095434 36.589413133906014
1781 1 19.689248920369216 16.882033574418486 36.655438463493816
1782 2 16.9984544755142 16.872464810637887 36.67113707332378
1783 1 19.74530393770188 19.824977100531886 33.822258065709065
1784 2 16.825672952859914 19.729004487412727 33.86307448191087
1785 1 16.83193403950218 16.919109823241122 39.456880413526804
1786 2 19.733639513266354 16.879372498038492 39.5130777082832
1787 1 16.964856734891892 19.76319546168592 42.33699137388881
1788 2 19.68685712985137 19.688023302030945 42.2632136908397
1789 1 19.77066858204921 16.961208894454266 42.3395980697484
1790 2 16.933837543023895 16.94344739105729 42.368239233182784
1791 1 19.698898934635054 19.718792135461758 39.50331731931758
1792 2 16.976475270302224 19.76255825289436 39.47884102589032
1793 1 16.90478617170494 22.56435483955975 45.036285217779636
1794 2 19.78121999246836 22.588024008908338 45.07088002136719
1795 1 16.94765916525561 25.385091268769845 2.7353383284535773
1796 2 19.800986927917744 25.387760332932782 2.773635613332966
1797 1 19.82724877208566 22.558182406703896 2.792980346090308
1798 2 16.952876729481897 22.599195035213462 2.8338344443616945
1799 1 19.64208970387422 25.378153780829667 45.11750424749168
1800 2 16.91144676053905 25.429938943088164 0.01999594173898796
1801 1 16.908426798405067 22.490158129323337 5.6722998765526125
1802 2 19.72898123149323 22.56709565302528 5.691067084412805
1803 1 16.985262341536714 25.394621058991472 8.391208779431658
1804 2 19.71263984797806 25.33811368876226 8.442112613463232
1805 1 19.796131134354972 22.556977637321243 8.459012963178916
1806 2 16.924123959947075 22.59481879459599 8.531892776541298
1807 1 19.734161834453918 25.402512456419764 5.726716650135292
1808 2 16.854931076218726 25.37210343735879 5.638117515115211
1809 1 16.922668611468705 22.57528564805642 11.228867297504204
1810 2 19.81126986414227 22.55315397286955 11.285103768713965
1811 1 16.8969848743893 25.43546169723862 14.15518629034335
1812 2 19.75822011347606 25.463213956762683 14.091764420189161
1813 1 19.782981643281023 22.497339731054367 14.143377188379278
1814 2 16.966357655124142 22.609518985456535 14.11204825263217
1815 1 19.731448152733186 25.318580617036286 11.265156998916876
1816 2 16.8938357984512 25.300013677476137 11.323321948634169
1817 1 16.897693823168456 22.59238490200394 16.884416823730028
1818 2 19.810155642653942 22.573104066341575 16.895613007214482
1819 1 16.858233572981018 25.451672090147653 19.71939557360553
1820 2 19.681574201995513 25.443559721493674 19.699835338792617
1821 1 19.70462788301135 22.566418329790594 19.68307770644701
1822 2 16.905903289018873 22.521781160694623 19.699688062384233
1823 1 19.739413237725344 25.370011597620465 16.979497385516172
1824 2 17.00018322336346 25.39214671018185 16.938295723953743
1825 1 16.856689690591967 22.535776240782198 22.565246352818225
1826 2 19.822268781816938 22.61113853204469 22.5458557994756
1827 1 16.91378953657326 25.352802514874828 25.33314863458053
1828 2 19.65404567043332 25.373763229025673 25.400993657856972
1829 1 19.729879623577933 22.57332486525111 25.4633824779518
1830 2 16.95237614148832 22.51396981270797 25.363293101540904
1831 1 19.679803645079325 25.396629571223293 22.566853805718612
1832 2 16.931775048469497 25.33708335335854 22.521035477102462
1833 1 16.877771348448405 22.561254095924625 28.285057156004147
1834 2 19.753243911747298 22.62066120418367 28.17609285385506
1835 1 16.92884920093275 25.440440000425426 31.091198613592738
1836 2 19.668732555879142 25.36052612032908 31.05958274089339
1837 1 19.80326265637411 22.533517519986766 30.989086140005384
1838 2 16.874677919380716 22.554905206603937 30.99642038951579
1839 1 19.806365134720263 25.43494276781559 28.20738165977997
1840 2 16.979031729501788 25.4129646910748 28.20227334255017
1841 1 16.961096785220025 22.60164618595801 33.84140921283268
1842 2 19.66575919786087 22.53365102112387 33.86529225571255
1843 1 16.974017918355578 25.354764732056832 36.65362394712464
1844 2 19.80977666679744 25.350794692416795 36.71509632261389
1845 1 19.686245865710553 22.541879216750125 36.647405945055674
1846 2 16.993281689505206 22.5645294293149 36.596327904592606
1847 1 19.699303827006762 25.443927350907973 33.857532079006404
1848 2 16.89601574290241 25.424411447710757 33.804118199176266
1849 1 16.95323386670546 22.504965233695206 39.49125143064365
1850 2 19.68543894026911 22.577759667933126 39.52835589004417
1851 1 16.904987162549762 25.428982297103136 42.23692056745893
1852 2 19.717332253512396 25.397477511306427 42.37359760207397
1853 1 19.745466223146757 22.52039800792819 42.20867676287719
1854 2 16.91320201869869 22.5027088664656 42.3396618083609
1855 1 19.663948768602044 25.389805592210873 39.46942738500357
1856 2 16.88812407690642 25.376905656364805 39.54963572636967
1857 1 16.92943687806771 28.15907540378142 0.032084953671001795
1858 2 19.664241524611487 28.18257305588315 0.04261953667610064
1859 1 16.912345567776775 30.96212884227587 2.773206017610063
1860 2 19.718011734121394 31.086509690326483 2.758960150554412
1861 1 19.785841063458093 28.141779918275326 2.796905896002695
1862 2 16.971928067662777 28.11655310841825 2.809800851558795
1863 1 19.727517983211175 30.980194791168785 0.06826271345700162
1864 2 16.91667135855786 31.04940144000911 45.07942170484398
1865 1 16.972988598778073 28.19907946285376 5.633560056750624
1866 2 19.796999446280058 28.246490476917884 5.703557877564449
1867 1 16.98095428991297 31.00150649153201 8.427074073714444
1868 2 19.708823931220216 30.949921260246473 8.520753608313269
1869 1 19.797026046644007 28.223283827036212 8.430948947459498
1870 2 16.852816894424382 28.165469012721896 8.441101086936431
1871 1 19.762234267607585 31.047824904293904 5.572106324286436
1872 2 16.94326683668624 31.0617495102783 5.722772263536953
1873 1 16.86996253454114 28.211382453847484 11.26456019942874
1874 2 19.78192802661352 28.229642428399412 11.337151551006452
1875 1 17.00769802482606 31.04833093867673 14.133920725079223
1876 2 19.80082786628953 30.96632210073344 14.067341328455674
1877 1 19.73898488414733 28.18874937545619 14.156078257020722
1878 2 16.921268641254045 28.16869884915482 14.057632304373042
1879 1 19.78786925907729 31.01979422016491 11.298039233817983
1880 2 16.946348429390145 31.090139164189814 11.277833923945778
1881 1 16.85483633327024 28.165653589309052 16.91425255889801
1882 2 19.6891980863783 28.254089600338535 16.87810706025497
1883 1 17.0123415113337 30.989330019543416 19.75996638809731
1884 2 19.70573528879245 31.04276140869072 19.703992684044326
1885 1 19.74586278059205 28.190979865795402 19.670289888703028
1886 2 16.86974164001384 28.223838494311245 19.701456288307742
1887 1 19.79929218532546 30.97021504412852 16.949001082769275
1888 2 16.86618024623482 31.08925615405051 16.88203557729748
1889 1 16.866045157212564 28.212541906516986 22.604490884225555
1890 2 19.659253937763115 28.187298133966312 22.517023876495664
1891 1 16.983222854350014 30.976201782085504 25.326047541480875
1892 2 19.691315638498338 31.075635634708156 25.3672605837484
1893 1 19.815834199989844 28.181284374477272 25.3810325197933
1894 2 16.88291200721207 28.19509632371809 25.316499208716856
1895 1 19.746091904046967 30.97014938922268 22.561590986274172
1896 2 16.937624072111984 31.091900606859845 22.547549215067765
1897 1 16.90407835739435 28.277078437489926 28.245885188866442
1898 2 19.770658063508613 28.118055642445686 28.239094252228732
1899 1 16.865882302620633 31.07577163461279 31.002354349841454
1900 2 19.734185964903716 31.098262006048074 31.078594400544265
1901 1 19.76252747252121 28.18888663140825 30.963762198381726
1902 2 17.011418046744925 28.19557557253444 31.015738698821572
1903 1 19.679203091508338 30.987358425684057 28.140598604848112
1904 2 16.92345577726921 31.013902384360833 28.106013584219458
1905 1 16.918724909734138 28.180644141098984 33.787256133697944
1906 2 19.756434812273458 28.260531444969107 33.8193664502579
1907 1 16.964714320854675 31.017593081648368 36.630670789882274
1908 2 19.812772796496688 30.97974759673934 36.682623333066594
1909 1 19.68413075098274 28.15255894912061 36.690799147730836
1910 2 16.85649117244613 28.19891642808848 36.62535857986036
1911 1 19.7629343604907 30.943564343517632 33.89071609161219
1912 2 16.864598271145805 31.01794240468312 33.81868097719504
1913 1 16.8792669698163 28.150649568131335 39.45752734121048
1914 2 19.678007073237126 28.26025881577478 39.503838392994844
1915 1 16.93007093734078 31.060306102324827 42.247773152760516
1916 2 19.77424287772471 30.94293822165028 42.31622818474162
1917 1 19.738093072422572 28.150613996580987 42.32012629517745
1918 2 16.984621051239177 28.215512477818738 42.31016964040433
1919 1 19.747203434079513 30.961355389565217 39.477541291454344
1920 2 16.941478234481238 31.02914613931665 39.52731160395908
1921 1 16.93884677161546 33.7520660580831 0.040043042610138704
1922 2 19.775122598748027 33.814720593936286 0.03237463939313208
1923 1 16.95979703309881 36.631545860851496 2.859205981618579
1924 2 19.782269476101263 36.61057823455114 2.8188397589447307
1925 1 19.78939133591715 33.846367980788514 2.8700576345780187
1926 2 16.896731849514 33.77535836738549 2.8266086880880223
1927 1 19.663520619672592 36.6706668353756 0.05792822994271645
1928 2 16.95971063135565 36.617599748788535 45.05710810145276
1929 1 16.918646732637846 33.91912727677432 5.670201404698291
1930 2 19.716267383571797 33.76490707189555 5.682815254336268
1931 1 16.967382855120622 36.634146397853165 8.442312379947039
1932 2 19.681464462888467 36.653109128810684 8.496391458536069
1933 1 19.782932736924103 33.85533858279628 8.42371171743649
1934 2 16.84810960302546 33.827299135860535 8.462741463896803
1935 1 19.772873002909932 36.60306649947504 5.618182460865685
1936 2 16.88066091114576 36.62530490635703 5.637478034113092
1937 1 16.96117247833273 33.78627186950154 11.324664177262209
1938 2 19.723946328953854 33.78604820271078 11.324684977536194
1939 1 16.848149131121595 36.70511465163513 14.05283198847488
1940 2 19.72224318953185 36.64096938164235 14.153172482161605
1941 1 19.71110850889964 33.88451810048922 14.131363260271849
1942 2 16.977373785770602 33.87197787691795 14.117714056310707
1943 1 19.809550717580564 36.708005596545966 11.294698514346425
1944 2 16.934859499089416 36.71932256729197 11.34127302549252
1945 1 16.968538078761114 33.83458989941684 16.969136650800415
1946 2 19.723308931881498 33.90334304292113 16.963215470287498
1947 1 16.917463078519464 36.712255056406214 19.801277521106332
1948 2 19.716365732337877 36.67475042811902 19.64765401917882
1949 1 19.808780303546605 33.81935504888506 19.75283375948717
1950 2 16.92823599588334 33.905427187631894 19.708970070820985
1951 1 19.790506510049706 36.72948059945284 16.93729648691102
1952 2 16.90659322724741 36.685883059906516 16.87243076493783
1953 1 16.930722065521554 33.92522802694357 22.573821174210302
1954 2 19.683843201375456 33.82197964929154 22.558985253890164
1955 1 16.908003433510526 36.604231565642884 25.343854887237157
1956 2 19.75587209174053 36.66097480422549 25.327293228660444
1957 1 19.7964908433809 33.8267226778852 25.373514368546857
1958 2 16.858109876962015 33.86226521601889 25.345550989880568
1959 1 19.72741368384842 36.61575673691225 22.476526941695518
1960 2 16.957562622510466 36.62868157102027 22.537428112517876
1961 1 16.915281916074758 33.89013685535372 28.158534307852978
1962 2 19.75685153051629 33.902570830552364 28.21373988243477
1963 1 16.88027170069802 36.72964693830033 30.967151543464055
1964 2 19.696491485444422 36.71576020482861 31.06326069437535
1965 1 19.703739324604637 33.88757107683551 31.034330032546364
1966 2 16.968513524868058 33.840258974917646 31.074728831749322
1967 1 19.669887592069532 36.653202064789184 28.195374000614525
1968 2 16.96142199227701 36.58509786586276 28.24770858301159
1969 1 16.881493021283884 33.7758429645696 33.87213198098855
1970 2 19.68273797067682 33.857445744693614 33.815493413263084
1971 1 16.92685518260547 36.668636060446815 36.71233097637688
1972 2 19.663685020305547 36.634018365944925 36.71591853901413
1973 1 19.690739629337283 33.830094311335095 36.646784064273795
1974 2 16.90436430118744 33.88854990562173 36.659992821320124
1975 1 19.71131066802917 36.75013929363831 33.808487970910605
1976 2 16.913753926311365 36.64996711098959 33.93509448521906
1977 1 16.9052712159426 33.79587731721268 39.50181144431855
1978 2 19.66816648991892 33.79094363540552 39.50109119281139
1979 1 16.895003260418417 36.569069168383876 42.29815465297387
1980 2 19.690561107231392 36.66566389090444 42.24893551216953
1981 1 19.730342008452524 33.886681176503934 42.2774317567098
1982 2 16.921142989943665 33.90434644047547 42.36728667453444
1983 1 19.784705721670406 36.65708665983769 39.560177056791886
1984 2 16.903006061923662 36.74655396718213 39.48885021429164
1985 1 16.880816626179172 39.54168184694627 45.10852356395457
1986 2 19.75815763967553 39.51780742478502 0.04239899817364067
1987 1 16.847671924381913 42.24822859458036 2.8284163550318824
1988 2 19.814773883270394 42.311795498859084 2.8189737448222765
1989 1 19.75086752275956 39.52233040452553 2.8989760227299373
1990 2 16.910959606474172 39.433757490002236 2.775379777842159
1991 1 19.696846741707084 42.36588920083176 0.036820153184256375
1992 2 16.941920860479883 42.35385796385435 45.113138063700134
1993 1 17.00359410416896 39.51529420425357 5.605628410167517
1994 2 19.674690588868284 39.43756153713988 5.652947608477167
1995 1 16.961337833787844 42.34481181657687 8.47388327284949
1996 2 19.796050668287105 42.31422205903399 8.478576244607893
1997 1 19.73735286128906 39.5231152247155 8.495179037397275
1998 2 16.886191694641504 39.539934252556364 8.476533437396618
1999 1 19.718944013177577 42.36871287311446 5.65676098904106
2000 2 16.966268262273413 42.23448629769634 5.6129188286461495
2001 1 16.836279491722102 39.43896713851499 11.27493413332966
2002 2 19.775231297348235 39.544263073413056 11.294409920657962
2003 1 16.86610999903492 42.266834130615734 14.119472247954192
2004 2 19.704083932553328 42.21999583758598 14.07763710042771
2005 1 19.738766705940304 39.51469626877488 14.021832421031466
2006 2 16.907857918767714 39.534507691056774 14.159265829464951
2007 1 19.815984815871854 42.335237370130926 11.287506983768406
2008 2 16.979580951929425 42.2986680372521 11.325801357960533
2009 1 16.900854075271074 39.52265093627646 16.866599986291504
2010 2 19.782819240766585 39.443018623540624 16.90202024556305
2011 1 16.91088257479184 42.278670762891174 19.642936385139855
2012 2 19.781322234137928 42.29189556913689 19.710862903522596
2013 1 19.77109090325305 39.522766967986264 19.738296040876094
2014 2 16.905811461676613 39.39655861074504 19.766904542750314
2015 1 19.708524720823767 42.359889291373754 16.914956656291096
2016 2 16.947435589181424 42.254995541953605 16.889677706122278
2017 1 16.94311353455376 39.41520079314702 22.610909169090224
2018 2 19.676813894274016 39.504192273817445 22.487977598293938
2019 1 16.9576493993161 42.239905121921275 25.377051708368608
2020 2 19.734485524179977 42.20841647312976 25.341846886255773
2021 1 19.75007816649512 39.39139245606417 25.35691031992472
2022 2 16.82697400868228 39.482067425486726 25.34735878846716
2023 1 19.683861777775576 42.26190142288533 22.540670892750427
2024 2 16.886608322095015 42.318428331693305 22.612894537358542
2025 1 16.95328644796764 39.461714410096064 28.29178495047471
2026 2 19.72324826612886 39.47242562535141 28.147455127205017
2027 1 16.91854751723478 42.26909989391123 31.08746922931511
2028 2 19.724413805190604 42.280091082065915 31.094496144157535
2029 1 19.76190895199639 39.43866345770207 30.937409364573274
2030 2 16.855522724292538 39.53376202314362 31.020560167628936
2031 1 19.782197898983313 42.32681230650626 28.145092057848345
2032 2 16.88131143162197 42.35106611553388 28.18143801319612
2033 1 16.867645139399954 39.43846124025035 33.84955528246903
2034 2 19.78609416387462 39.492684284795274 33.87123985244234
2035 1 16.87311565880318 42.25641418457839 36.715357065138726
2036 2 19.800602394235128 42.34018612998483 36.63344310959127
2037 1 19.813581658585385 39.49726604774838 36.64173189195254
2038 2 16.887897747601738 39.45736434409722 36.7319781499753
2039 1 19.76885174307495 42.32499504384737 33.92579632965631
2040 2 16.963305979511453 42.30847590360112 33.90531621849366
2041 1 16.94748083085902 39.40526653098001 39.434120845540505
2042 2 19.80394671419114 39.552337991223716 39.45987826603299
2043 1 16.896452240436613 42.2294571879223 42.308190839970365
2044 2 19.76493642899221 42.35055251403294 42.27066268413797
2045 1 19.692827953010937 39.56260557537627 42.29069621148199
2046 2 16.924677571961737 39.41366579944705 42.28061103696899
2047 1 19.787149022912534 42.347972424595305 39.470993641483346
2048 2 16.942086515379348 42.30323944679925 39.576978545739195
2049 1 22.51528620921952 45.11867638579045 45.062696173951984
2050 2 25.410734431409576 0.06457217084480243 45.115592047911704
2051 1 22.569982318201546 2.8534040861350345 2.898234428763494
2052 2 25.30914374641841 2.808512141614952 2.8304949497588745
2053 1 25.361520966732638 45.088191506034995 2.77665371459123
2054 2 22.53979319753222 0.01662219251700331 2.901265709969658
2055 1 25.388591845340137 2.742635526910897 0.011000770140140843
2056 2 22.622008050996545 2.7883902433425214 45.115036879063176
2057 1 22.637309776075902 45.05854082403778 5.625110780260933
2058 2 25.380712102836195 0.014036182764254265 5.586293277495594
2059 1 22.589385366257762 2.769957524693057 8.44941869177611
2060 2 25.41237049535425 2.8377842207771913 8.532797080862847
2061 1 25.393046450439147 45.070187607504074 8.444505962966725
2062 2 22.581407984779332 0.005526351311119349 8.531101163535062
2063 1 25.323006943680817 2.833197417989487 5.643987055950162
2064 2 22.615177143361795 2.7709313452955504 5.573314847393779
2065 1 22.526450550158955 0.04219394930312079 11.257304723581345
2066 2 25.4582887404064 45.10325630098951 11.267013363425397
2067 1 22.620076267112353 2.813730936361777 14.136804266875988
2068 2 25.370178502843057 2.869902173720787 14.066623123026893
2069 1 25.34305252868178 45.093957464574146 14.129133112696238
2070 2 22.612638124919982 0.03964547292698689 14.077396202726815
2071 1 25.399369902419227 2.8964304511586025 11.296172521257896
2072 2 22.56815463124549 2.765429400083368 11.255870941648821
2073 1 22.509746082596042 45.05544977651197 16.93842647704812
2074 2 25.457815680421692 0.057933883553612286 16.943363007113952
2075 1 22.51543049407945 2.8475668579771436 19.8145737134694
2076 2 25.344027004681138 2.7936321012176175 19.652988034727688
2077 1 25.34969650213774 0.038248983968848876 19.778365001840893
2078 2 22.61226818408282 0.026728795192069218 19.7044829051963
2079 1 25.4067010255587 2.8143257810258913 16.982629181442
2080 2 22.6061503540239 2.868887322457021 16.928334377229938
2081 1 22.52516029276537 0.06865706876024356 22.53794881806142
2082 2 25.335145176665204 0.04263808197505113 22.588532292030017
2083 1 22.560281180288463 2.832049086308223 25.442940190319252
2084 2 25.292256877676824 2.817363917068892 25.39687565462729
2085 1 25.369560654956747 45.08856220109239 25.43877408719635
2086 2 22.634627787826417 0.032433555180840214 25.422636310013438
2087 1 25.33314271359938 2.8027894144758405 22.585877305980368
2088 2 22.609082293887734 2.8055947907494136 22.63831897462313
2089 1 22.57081736413978 0.025655014408346454 28.244971381561164
2090 2 25.40850904023278 45.080985601722055 28.14559651656727
2091 1 22.47453359994098 2.808266790821684 31.013407460181803
2092 2 25.30204431030921 2.874375799908362 31.03976232272044
2093 1 25.41297877923378 45.09459456569007 31.08621704588125
2094 2 22.50501030285641 0.00831442215630997 31.022105989285446
2095 1 25.4003722389932 2.880637662897708 28.231346138477583
2096 2 22.57455129123821 2.7927677289039923 28.244588373670545
2097 1 22.54614727954178 45.09253455077435 33.9151826124195
2098 2 25.41925842850825 0.05818827944709244 33.843686788064815
2099 1 22.529606726805078 2.7455519416513807 36.67846667132291
2100 2 25.408932629790094 2.829660973402509 36.61477847630409
2101 1 25.351793876588314 45.116506555196906 36.57306584930087
2102 2 22.521896857229383 0.052887658145573745 36.6569098581494
2103 1 25.300300785356217 2.7978590732012294 33.792972241895406
2104 2 22.49514357173488 2.7505627870186604 33.835920519180405
2105 1 22.532957553154006 0.07328066309399794 39.484215455425236
2106 2 25.41837917142174 45.11400327127171 39.39161460823308
2107 1 22.629291402858087 2.8652762583187346 42.35224650306305
2108 2 25.391153314841652 2.772393801427016 42.315182522290435
2109 1 25.358165438565543 0.00250473897384812 42.394912430480055
2110 2 22.542942217074962 45.04426809280199 42.327914914929636
2111 1 25.446694806576524 2.778882908814756 39.490806300287296
2112 2 22.535206957956277 2.904194535716327 39.48031918703668
2113 1 22.517466794375384 5.573425387247494 0.04742092512369499
2114 2 25.37818240382518 5.575745682121278 45.10427695378259
2115 1 22.559831660960405 8.379783713098572 2.7977683239735818
2116 2 25.406712578135163 8.413705518623864 2.859877070207567
2117 1 25.35019919341082 5.651665972104938 2.88981799000106
2118 2 22.508287901683758 5.638378064836163 2.8425001563286805
2119 1 25.413546551108794 8.430569827460115 0.052481512836393504
2120 2 22.49765014862709 8.467531224274184 45.08541602797885
2121 1 22.545469805462904 5.709605834867249 5.616983339155245
2122 2 25.425379976691868 5.648768484039113 5.66874317668093
2123 1 22.577583850925546 8.388289056040227 8.514996549324435
2124 2 25.28772300119042 8.473353189509107 8.4797642229323
2125 1 25.315884440344103 5.630348369390072 8.437930834544629
2126 2 22.51111016072225 5.657184538698297 8.47290045109307
2127 1 25.38463039470066 8.471853851037665 5.563186846887071
2128 2 22.584414712003593 8.390177142038878 5.615113681786392
2129 1 22.5359347888311 5.579482404348757 11.304995227478315
2130 2 25.42502629250863 5.630801832701245 11.299768093997095
2131 1 22.528496341366708 8.482341849899543 14.166690743056627
2132 2 25.411957240258022 8.415123522377428 14.10437405622203
2133 1 25.366196498637702 5.629515023882246 14.172919001768769
2134 2 22.52886999062791 5.596770255063814 14.138058324838756
2135 1 25.35786598295348 8.431730288993865 11.226389575127364
2136 2 22.480309564782992 8.420980240058377 11.239145468984052
2137 1 22.580605969649895 5.648060380283093 16.987369794648643
2138 2 25.42874646714399 5.612566623480112 16.930031606492836
2139 1 22.647367382666683 8.468147561822098 19.772289442422224
2140 2 25.42892334324321 8.442336667265165 19.768094774361945
2141 1 25.406730362936894 5.6224709778340545 19.8229521271991
2142 2 22.503172112995987 5.622444460239556 19.71902106417039
2143 1 25.334967168918354 8.497240664474042 16.91265814161248
2144 2 22.51536469330441 8.437481972930161 16.89213693510641
2145 1 22.62186865366742 5.6680369088051865 22.6135310357977
2146 2 25.39900052148095 5.681292307278155 22.47731884454674
2147 1 22.615641741078043 8.430855918099716 25.42008112056739
2148 2 25.373178248261564 8.40508041576746 25.458993233192995
2149 1 25.369457519825822 5.699257711556513 25.38470857422342
2150 2 22.57025029682836 5.695127410756622 25.443899199366058
2151 1 25.434904966210485 8.46504699712442 22.603122454348323
2152 2 22.530948331475763 8.412013665239863 22.63296250404783
2153 1 22.59305509878213 5.645656691258948 28.118229653790557
2154 2 25.436988365686553 5.640988965445746 28.143963126740744
2155 1 22.533416133823625 8.525840733893546 31.041591701932088
2156 2 25.409331738442837 8.3772257604289 31.048106048471364
2157 1 25.341735766456203 5.6677074983640265 30.997502155820627
2158 2 22.580022511260584 5.665954891186677 31.058675767056435
2159 1 25.397562599632654 8.524040852877288 28.24289367921291
2160 2 22.531540495635436 8.458900394569502 28.253333561148466
2161 1 22.4876206360947 5.692918596259477 33.83561566420682
2162 2 25.41973592419404 5.6331656351349055 33.783513372235795
2163 1 22.51569194968172 8.441631952142856 36.61982731851349
2164 2 25.400171231435486 8.422366685173376 36.61395255137431
2165 1 25.413645060662272 5.63078326553445 36.620371359626326
2166 2 22.468552881648158 5.6119035885907 36.64553115234085
2167 1 25.368396643115958 8.390401734397432 33.81529465113233
2168 2 22.496573970006885 8.4483394508134 33.854097236617086
2169 1 22.54358102987066 5.59087338899369 39.442365898267234
2170 2 25.33174585288211 5.6579894787910625 39.49674511800526
2171 1 22.609299535271052 8.475075742220964 42.22765237268249
2172 2 25.34506336838627 8.431781967371789 42.216797597741355
2173 1 25.4387543046316 5.655010840205736 42.363772545006185
2174 2 22.63480526680431 5.659657642975371 42.277349662571794
2175 1 25.385564772129896 8.43476607227424 39.43252815640797
2176 2 22.514543456652667 8.474230998775148 39.42116939684881
2177 1 22.554711133282602 11.237824086624313 0.036111554235007476
2178 2 25.35824609285355 11.241666409737984 0.043817166418237165
2179 1 22.53641986787485 14.021869364002164 2.792967877658232
2180 2 25.447350120677367 14.113736693708594 2.8719870984174634
2181 1 25.454641881769284 11.287676618747003 2.814720855328877
2182 2 22.6357418032827 11.284409473391769 2.7590797957859268
2183 1 25.30139148085228 14.058566364089268 0.01542047285382311
2184 2 22.541981663781783 14.079723893211305 45.05806387468508
2185 1 22.539299272602108 11.283114139819792 5.561826331495018
2186 2 25.356177618934886 11.341405773684325 5.671341851716706
2187 1 22.595711868634254 14.04326806058299 8.456368888962068
2188 2 25.412675137070018 14.096328067364375 8.518938334469018
2189 1 25.410754459484618 11.324829012008424 8.540157425100523
2190 2 22.50949494848857 11.290047501470585 8.425901303599334
2191 1 25.41145696695022 14.19412110301002 5.63426519170323
2192 2 22.517973358082582 14.063855180625277 5.638776889510642
2193 1 22.525790562853192 11.367170508232231 11.26412925382533
2194 2 25.4567413565568 11.279533462086716 11.23389345664555
2195 1 22.625625133183792 14.091272276277683 14.144034705170009
2196 2 25.459552139630784 14.0920446773933 14.137423609648888
2197 1 25.432480496945118 11.353876149720374 14.086109873116751
2198 2 22.504413336155064 11.340318511132137 14.130729956483341
2199 1 25.328801148469065 14.129501044560707 11.242157506927006
2200 2 22.526475042791652 14.044169124719861 11.253787842738769
2201 1 22.558533385522924 11.232383637550445 16.972826561970557
2202 2 25.404182567877296 11.307736574656504 16.97490817790308
2203 1 22.609703758456696 14.108231594446677 19.747866602516204
2204 2 25.316683205146646 14.146779874241354 19.707107382799702
2205 1 25.319516211696055 11.29596848295926 19.704260068240547
2206 2 22.617019356758988 11.351201815228436 19.769167176307718
2207 1 25.33065263260151 14.104595761609986 16.871692473501604
2208 2 22.500207037795803 14.028295091716773 16.910537831103035
2209 1 22.585315732053566 11.262546097364746 22.635198667271936
2210 2 25.339857356672777 11.324568323481731 22.60178681760158
2211 1 22.521686787234753 14.12690582704814 25.339732570155817
2212 2 25.334771299348528 14.097089229391445 25.43138477344279
2213 1 25.331416593720117 11.336812959088636 25.438447931707866
2214 2 22.528043911041355 11.211901525099098 25.345784780556446
2215 1 25.34367591005358 14.051778805128219 22.503022250946813
2216 2 22.482340225729743 14.10948265914454 22.604686594181857
2217 1 22.62669146693406 11.307437009177331 28.1626385145316
2218 2 25.39883921946981 11.213298839152742 28.231757903220643
2219 1 22.60521902036844 14.055125278135565 31.034974919296012
2220 2 25.393103422210547 14.105874088103167 31.095994261149233
2221 1 25.387249435534386 11.218663237331162 30.9595339011272
2222 2 22.614988618527256 11.201809192251828 31.029567333773944
2223 1 25.30799429896036 14.126360722525705 28.19406329347669
2224 2 22.596205040490855 14.046526342805086 28.146093779364836
2225 1 22.545196050131917 11.251995033147184 33.89994210285343
2226 2 25.35947152371047 11.287462819062355 33.78523962237843
2227 1 22.604022289202245 14.027129701838431 36.65365031272234
2228 2 25.355727162573377 14.0710029015018 36.69315688618676
2229 1 25.436352360892073 11.323497979266184 36.62308725719007
2230 2 22.631630507425783 11.348862788673156 36.66487589804776
2231 1 25.40837404418782 14.148233803661698 33.871586371078216
2232 2 22.607338367401717 14.140458471489058 33.83052307914952
2233 1 22.577581164804883 11.246024874079035 39.43297548607535
2234 2 25.45499892595928 11.217987138485041 39.50149096847633
2235 1 22.51668714818291 14.102296342226232 42.3817513363653
2236 2 25.46072735652285 14.091114942782712 42.33338979739235
2237 1 25.360617484675494 11.322659697560246 42.21678388977994
2238 2 22.6087288826521 11.301388280753205 42.26041881282488
2239 1 25.436712972789426 14.08160828221417 39.417327114735855
2240 2 22.5586077066644 14.1165932303893 39.53001037173681
2241 1 22.549313861672626 17.004532996403384 0.031651685060562984
2242 2 25.34403771863986 16.91107773435367 0.07269287645577922
2243 1 22.518233346828676 19.769277234552714 2.8043901514428695
2244 2 25.41470048342788 19.721525783806523 2.8553763086934274
2245 1 25.39864690332774 16.870979855097627 2.7730800423119493
2246 2 22.53791317368162 16.861186310612272 2.7658576226749827
2247 1 25.446387755826844 19.693941506078435 45.062396695500176
2248 2 22.535327960219536 19.688599029776295 45.09422797255492
2249 1 22.5398894234022 16.957784919790754 5.670381183248385
2250 2 25.38457259140762 16.992239500852772 5.680843402924968
2251 1 22.486041823483216 19.72811024641414 8.397383545769678
2252 2 25.463920676020887 19.789791710702172 8.440759420586472
2253 1 25.322263022241845 16.867129566389366 8.467483672566793
2254 2 22.59069794327124 16.93916985362716 8.410048097925982
2255 1 25.38878566102158 19.77148652213162 5.560380383649776
2256 2 22.510260202484492 19.689476779508166 5.615759400589801
2257 1 22.543783971439904 16.86292222766919 11.280491448500031
2258 2 25.31654238557032 16.922617726287747 11.26048958940691
2259 1 22.59244346285713 19.708613569015224 14.074090588755064
2260 2 25.356290666763922 19.770717900918715 14.063183130738539
2261 1 25.38704629212432 16.983624059800114 14.113584054580171
2262 2 22.502497966204825 16.916938382550903 14.094687370136473
2263 1 25.36037125164904 19.69737588999466 11.31497774256189
2264 2 22.56867804602431 19.780383133282747 11.316124487060934
2265 1 22.52563081569625 16.89414484273637 16.995995280814107
2266 2 25.325793899934556 16.95182450226654 16.95938531529996
2267 1 22.56042410404988 19.752763997113334 19.806492083138707
2268 2 25.344816978626508 19.78817835830391 19.765944827064633
2269 1 25.348815220426886 16.985710474651174 19.788334327197067
2270 2 22.52982246888534 16.99475820382532 19.713614948889155
2271 1 25.37940349539247 19.755589696421325 17.00916774191458
2272 2 22.61737933076064 19.780388215878848 16.909913720766674
2273 1 22.59094243874447 16.872582171300508 22.537248373147513
2274 2 25.41479832451874 16.946540448852474 22.610422352682242
2275 1 22.613896194202276 19.734914662648517 25.342238876695205
2276 2 25.311981243882023 19.76399303395981 25.404008543560508
2277 1 25.455636500234476 16.913491251970285 25.411341278839153
2278 2 22.61068895111483 16.939389673459 25.431755743615216
2279 1 25.422217380453308 19.71795168290194 22.519851804726258
2280 2 22.5701010719406 19.792043060888158 22.543467915486655
2281 1 22.618002395011665 16.938339503798964 28.19505271951622
2282 2 25.356835376537912 16.86068015374525 28.176773215346252
2283 1 22.554231282151733 19.762871059367388 30.963558065823534
2284 2 25.358894938029373 19.697704449164583 30.948138722842604
2285 1 25.377704104868354 16.85167945298805 30.9835569844008
2286 2 22.53169012064223 16.847329692325633 31.017613812109385
2287 1 25.430258545592654 19.729451635622258 28.13640263455693
2288 2 22.608497929679846 19.769914797287782 28.133598552790197
2289 1 22.613121937353917 16.91937133384737 33.843169435740336
2290 2 25.362442251215814 16.89180991247783 33.798766194612725
2291 1 22.558662740355484 19.66308748842111 36.60456312027103
2292 2 25.40431590847533 19.724774454985624 36.59135387942796
2293 1 25.348770155328605 16.94892116783191 36.71208549860647
2294 2 22.55208819852205 16.875943195770425 36.614908253455226
2295 1 25.38789053769977 19.740513153026235 33.90616441686655
2296 2 22.5471337771778 19.729089048166916 33.889575577598045
2297 1 22.600801531318666 16.90501785861431 39.4528598269461
2298 2 25.393937632495454 16.98231333999583 39.463512690234126
2299 1 22.629763897506745 19.763638121818982 42.349728327270896
2300 2 25.417636779578718 19.691044887315087 42.27862128589503
2301 1 25.333229453799877 16.941098315981847 42.36326830235394
2302 2 22.505010149496098 16.95095261978445 42.23891365976047
2303 1 25.411331782698063 19.80849157129164 39.493699644968416
2304 2 22.569566719054354 19.810629382824057 39.48425696920097
2305 1 22.524423837614858 22.511677892319327 45.092916343174345
2306 2 25.405914822972516 22.51781463278633 0.060806281789180246
2307 1 22.528706743920285 25.319912200281305 2.7896936783660102
2308 2 25.42221598844072 25.354630505804607 2.8746077989991745
2309 1 25.395511989757043 22.620321401811168 2.8766755725208983
2310 2 22.593873015322462 22.638578474801076 2.8400265847634376
2311 1 25.352794374876048 25.419726560892006 45.05589583302537
2312 2 22.62719800769555 25.369132939026343 45.108653468502354
2313 1 22.553374306553714 22.54622147151591 5.578717648246636
2314 2 25.45450385748872 22.518778784048987 5.589251540052944
2315 1 22.5138224410629 25.406582955447874 8.543748922624431
2316 2 25.391737963230025 25.456372362976097 8.512976801332188
2317 1 25.375739161107987 22.507624858297596 8.509803661604339
2318 2 22.56841949188257 22.5938686250604 8.51609955763687
2319 1 25.396245320494973 25.357031927015697 5.571673878419599
2320 2 22.631758479481284 25.410362973255893 5.67275138272188
2321 1 22.51664172904616 22.60768463750631 11.214632366811736
2322 2 25.357452188982148 22.607579923919683 11.342666558896351
2323 1 22.59880094599039 25.2951669104584 14.126325175567668
2324 2 25.336409927700647 25.40946233505192 14.160464879804517
2325 1 25.37538751380327 22.486584303793734 14.087925157459171
2326 2 22.501122453686364 22.55515824019099 14.075185902293649
2327 1 25.429853744511725 25.304684195879464 11.257497152595716
2328 2 22.516391261057155 25.307323500824147 11.266793955956118
2329 1 22.57489964291729 22.632758780053255 16.919204137491917
2330 2 25.323185546045767 22.555230552818774 16.907440433056202
2331 1 22.594448686647524 25.37070379133992 19.785552255407964
2332 2 25.351621396616 25.33427713248494 19.7508885700691
2333 1 25.439896746483818 22.52818893858509 19.764933209267404
2334 2 22.554182722219753 22.605316586382596 19.762098423516438
2335 1 25.39782900715516 25.39134370828809 17.01759365715965
2336 2 22.60619520126085 25.435840135588595 16.947598149304387
2337 1 22.576534972540635 22.63936274328222 22.551163430623113
2338 2 25.43510413892448 22.49487863204751 22.583150760859148
2339 1 22.515095964916238 25.422460126840207 25.406634373748403
2340 2 25.38217806418 25.354491457672 25.4260730050897
2341 1 25.44264156913855 22.522920965366676 25.356703789136468
2342 2 22.501964002944437 22.508917525610855 25.347766796025976
2343 1 25.393257166899357 25.312814702762928 22.615435069383757
2344 2 22.555359645496804 25.378333492405808 22.640400249195118
2345 1 22.629550948050216 22.564461956118894 28.176751992781877
2346 2 25.410173588453215 22.539268515957918 28.278676044997116
2347 1 22.508344006271386 25.361735183243738 31.00234992625054
2348 2 25.34686841286478 25.38497922900048 30.960235348148043
2349 1 25.30352719341161 22.55893515392634 31.0748076213781
2350 2 22.469995740568887 22.56529157684835 31.02744184454035
2351 1 25.436842280339928 25.347242677521876 28.20091172470714
2352 2 22.61076047595622 25.344302102041397 28.17685394063455
2353 1 22.53992208199491 22.474892354837795 33.87719677273487
2354 2 25.403446418269084 22.5640659878707 33.79111016743979
2355 1 22.599490016448698 25.40268394893024 36.60090936829961
2356 2 25.315657362630002 25.399948485289553 36.659901438425635
2357 1 25.397569900877134 22.530313636144385 36.597508720000654
2358 2 22.58145811493381 22.547230585146586 36.5823782438732
2359 1 25.349868978264155 25.356887003917883 33.79342290695832
2360 2 22.57351638448501 25.345193764511073 33.80088875682682
2361 1 22.51409443342896 22.567001940380937 39.41469258632584
2362 2 25.428519790879758 22.637149998762062 39.44826593158341
2363 1 22.56686647745042 25.441047593493664 42.260483911449036
2364 2 25.379667657669597 25.45879373710711 42.28519608576976
2365 1 25.36322121025151 22.604314393390418 42.317715383011624
2366 2 22.55543687107578 22.58149944856197 42.2331170311746
2367 1 25.384467551606164 25.465393465701187 39.49965640452101
2368 2 22.51157027368165 25.340508040276756 39.41498295645273
2369 1 22.578649336970695 28.272536855848443 45.07685899508146
2370 2 25.44048318024028 28.178870914204307 45.0545748126937
2371 1 22.497904503949005 31.047353283043762 2.829428513891783
2372 2 25.37784023242562 30.934765950721832 2.8447032541751938
2373 1 25.346097035817305 28.122106643550154 2.8321138631858567
2374 2 22.572273132803584 28.267921539555537 2.7948345030370865
2375 1 25.44330183254199 31.04775208499877 0.02084679873533026
2376 2 22.50525151511144 30.943936488720485 45.119790848721436
2377 1 22.59442768713439 28.250905666941552 5.601248322067988
2378 2 25.436782736406254 28.157801711377214 5.6151158674892345
2379 1 22.497587515505103 31.07833515775475 8.425717240217681
2380 2 25.41816001034825 30.997334549883664 8.508643582130013
2381 1 25.398702383297053 28.112373105597175 8.454088677327235
2382 2 22.599395102598198 28.171492317280666 8.420003844750974
2383 1 25.408903920098872 31.056299281651683 5.679736122521522
2384 2 22.483404547999708 31.04207143750064 5.67813182878288
2385 1 22.50645748333151 28.215573344971258 11.302083326942677
2386 2 25.42845310623632 28.171173206499855 11.278267806776391
2387 1 22.63148203780292 30.99568907254556 14.085625819416215
2388 2 25.354869942340986 30.94383898281706 14.143778889474435
2389 1 25.45889480736565 28.220989775069917 14.129995635254442
2390 2 22.510197390174515 28.190893090741262 14.07175905430994
2391 1 25.339496579589163 30.96497586870647 11.301922682462935
2392 2 22.520062233312327 31.046064348654607 11.301739714439897
2393 1 22.57236683592681 28.157688747174763 16.975483478010904
2394 2 25.402371553832417 28.246080568279847 16.95799534495225
2395 1 22.58690632572416 31.109268051338773 19.759442536290642
2396 2 25.350676131087162 30.94736887681389 19.75147155883161
2397 1 25.38566667366526 28.112682278573168 19.753115345759266
2398 2 22.597496788074245 28.184582244708974 19.80824011603374
2399 1 25.351982905155122 31.036218981496845 16.96415717049594
2400 2 22.62563303854382 31.05088507033669 16.931298527226396
2401 1 22.59988305351811 28.11265396576379 22.536955908234674
2402 2 25.350140486330737 28.21752180501101 22.610889771094985
2403 1 22.539338299895267 31.02336188974603 25.46072517258838
2404 2 25.367551003022502 31.06602192027634 25.414600004961986
2405 1 25.389158023291728 28.154773507910853 25.404183455083263
2406 2 22.579854116723045 28.13950678972314 25.443203757627224
2407 1 25.37306078752664 30.92788789859794 22.552361251017604
2408 2 22.592648106642056 30.991565763903974 22.586291737805766
2409 1 22.5469096117932 28.269505155263282 28.195146020298587
2410 2 25.40931569423266 28.248746453487882 28.21697260890333
2411 1 22.63244957238528 31.023718932802222 31.05734434791893
2412 2 25.43281589159001 31.002973202645 31.03736828079075
2413 1 25.290988159163504 28.197033438434563 31.051465586285406
2414 2 22.598182715327834 28.130756965180087 31.028469410165616
2415 1 25.363577724876503 31.08237918676333 28.25213237398684
2416 2 22.53016843653347 31.105692175113017 28.16093415152347
2417 1 22.604803393583538 28.184989561624576 33.88315218467078
2418 2 25.430241294590417 28.231714218562935 33.84698822187347
2419 1 22.60826090586018 30.975035873849794 36.61423233699344
2420 2 25.443713992429547 31.00817599519024 36.68619314828458
2421 1 25.44255357529446 28.221842123172433 36.61745552998106
2422 2 22.531828742595707 28.1623503647407 36.631505121759155
2423 1 25.348208083681193 31.038623951094003 33.80439161824137
2424 2 22.537288035699696 30.938903830625904 33.79649503163814
2425 1 22.548244805738257 28.204999900481376 39.543700853682246
2426 2 25.376544093502144 28.247797787029516 39.421163697770034
2427 1 22.600445204364938 31.00805066003912 42.340469597792016
2428 2 25.449902589460322 31.052139409972312 42.252478659335544
2429 1 25.39598182838178 28.251849272153827 42.261306584429974
2430 2 22.59278665339313 28.24903453098275 42.30827507674519
2431 1 25.323351902156787 30.98379893981398 39.46976495619567
2432 2 22.618912104483865 31.01024968846473 39.425500951316735
2433 1 22.613496444051925 33.870555451940206 0.048692373051487096
2434 2 25.3435818338506 33.80637849097957 0.015708317458974896
2435 1 22.567960888485175 36.56255494702712 2.8287192299737294
2436 2 25.341758443271075 36.70567989924429 2.856636901135428
2437 1 25.397434977454456 33.796822237000264 2.853918151697974
2438 2 22.509022289074483 33.81564157651009 2.7764695057664412
2439 1 25.299033792477335 36.63195376498886 0.005531581005476383
2440 2 22.545987738234988 36.69552073979638 45.05552443334436
2441 1 22.507440435203666 33.773783047768795 5.659809718010625
2442 2 25.322301881919454 33.881320097266844 5.646170272335844
2443 1 22.578971465223592 36.58329923743972 8.460222639959701
2444 2 25.318884583023348 36.65766023282879 8.400237426903791
2445 1 25.42408129463068 33.8015614277578 8.512099885231107
2446 2 22.601149887607914 33.810328967247735 8.476911116764159
2447 1 25.345416482769767 36.600354209053464 5.5810546727873644
2448 2 22.62064411212382 36.60165976837652 5.655359311746587
2449 1 22.491893766890517 33.871936707409056 11.342823634621952
2450 2 25.391036641128554 33.891342739900566 11.23147441613471
2451 1 22.507755824214403 36.69984377193054 14.067875199237076
2452 2 25.36997668045612 36.70782819287906 14.117751817167854
2453 1 25.29031918688601 33.865265844425316 14.109512560929966
2454 2 22.490690589010455 33.87391432353722 14.134874340978932
2455 1 25.334682393387368 36.67623406802114 11.30966634569078
2456 2 22.511902805858874 36.6411752391297 11.319094688935447
2457 1 22.604278730665214 33.82610636301795 16.834266812776303
2458 2 25.33500757714637 33.85825811020858 16.881171110291945
2459 1 22.610949297373672 36.65503462450193 19.68815528420702
2460 2 25.316982730309928 36.66058771488808 19.752207314790223
2461 1 25.355624631531523 33.81156231904255 19.664862369460884
2462 2 22.53272756442047 33.798244578060824 19.779604243355116
2463 1 25.342301055479947 36.68358031746263 16.952182911961756
2464 2 22.6193681428821 36.653661473701874 16.918807491742257
2465 1 22.5959532395207 33.8740205579776 22.598221719514093
2466 2 25.374942214217587 33.755659162071225 22.523667386250068
2467 1 22.501751491099295 36.62317905870649 25.42707860770594
2468 2 25.421831364797708 36.634342282824825 25.347927773725406
2469 1 25.320252458457283 33.782083080323495 25.400301363547765
2470 2 22.608952413263715 33.830030250630884 25.45359668717549
2471 1 25.32350208164029 36.68144176738229 22.60184721170053
2472 2 22.596358199055242 36.61801413677497 22.53439985232299
2473 1 22.52273586130366 33.812851004326575 28.148797669060887
2474 2 25.41609582387981 33.77171851450897 28.258778816710596
2475 1 22.59444142188653 36.67205409844952 30.96966545960846
2476 2 25.320549011325603 36.670114199917904 30.95432955764577
2477 1 25.424714608648603 33.90319088331347 31.013814420092363
2478 2 22.576896159868223 33.80397011336843 31.108089322391773
2479 1 25.36137404199659 36.65454386516079 28.29521295780702
2480 2 22.477552581341524 36.63793212150902 28.250971062285213
2481 1 22.488541432980053 33.88086179809815 33.86474659315449
2482 2 25.394859428519243 33.86293919991316 33.90780948538436
2483 1 22.605123622632647 36.70212544772739 36.71650363254188
2484 2 25.388326384383237 36.718357710400184 36.63956814103821
2485 1 25.367447652145643 33.90534154466677 36.6625140676769
2486 2 22.488297716905304 33.78106479928489 36.651939618867225
2487 1 25.331029586109167 36.63058964935205 33.82645413161717
2488 2 22.505086715536503 36.72110388098083 33.79719700587435
2489 1 22.588780619489473 33.76977855053929 39.48444178046867
2490 2 25.44616469338138 33.813229435946994 39.5498568054916
2491 1 22.63203709981404 36.67675287760569 42.293043926906776
2492 2 25.397816643826935 36.60808149491975 42.30444440585192
2493 1 25.445992962539105 33.86401890086537 42.282657801775485
2494 2 22.596754576457275 33.80057744897668 42.25888499091424
2495 1 25.447385039510895 36.638902268912574 39.43501680422525
2496 2 22.514857174446156 36.698253576764905 39.44760747430773
2497 1 22.484438591072294 39.496420896353065 45.10961521148869
2498 2 25.309761816212344 39.45258371652433 45.10747539672796
2499 1 22.61579088899587 42.26271961585172 2.775333783723011
2500 2 25.397049066385772 42.25448353217907 2.741139439092781
2501 1 25.46417277945779 39.45207134943838 2.813563484371093
2502 2 22.63043446606257 39.483383009945136 2.791067598767645
2503 1 25.333054995654166 42.262610666252606 45.105815652788664
2504 2 22.532669701183682 42.227528173185256 45.09692634066928
2505 1 22.542033448868498 39.3986288203075 5.60906602281475
2506 2 25.319095845128505 39.41640627159679 5.6816020496968305
2507 1 22.57703031274037 42.2372988727013 8.42463499011878
2508 2 25.358856227421114 42.222286427782116 8.452003845894083
2509 1 25.377314646890554 39.49892641326863 8.3801208520458
2510 2 22.55536450667864 39.493288678576796 8.399476511121945
2511 1 25.39301899557543 42.38530579509075 5.5994591993563585
2512 2 22.56788034910548 42.29776597536925 5.71685336567273
2513 1 22.584765387101577 39.47254235866876 11.23310509109378
2514 2 25.39736127448605 39.46984230864449 11.344675743840236
2515 1 22.624084987552802 42.352313517705234 14.114246943641943
2516 2 25.337713703497105 42.335620177373265 14.099509639139972
2517 1 25.442342515208214 39.46619915648916 14.026097721167156
2518 2 22.48488531767718 39.43364979633545 14.13991485981734
2519 1 25.29224125551803 42.2979677744882 11.237667611599294
2520 2 22.63023285471747 42.302990371572484 11.22962933824469
2521 1 22.568930068763258 39.566359256069134 16.943827758726787
2522 2 25.388372240768067 39.43053649300532 16.95150205210839
2523 1 22.570002362788976 42.35808494839003 19.723273498685586
2524 2 25.356359147869608 42.35797124245477 19.69290012621899
2525 1 25.358204421707786 39.485548725625534 19.67793915326578
2526 2 22.55680441576891 39.5204151127005 19.7055080791365
2527 1 25.31010302675027 42.28078253504227 16.97529525620153
2528 2 22.53247184092684 42.2166958308412 16.965780127302068
2529 1 22.55505035388584 39.48509354780112 22.636446808537276
2530 2 25.368651891325086 39.40698040524539 22.595874711359226
2531 1 22.625237640384633 42.3055496342186 25.40861861430803
2532 2 25.390874926870328 42.315959084150975 25.428671728816333
2533 1 25.3097692966851 39.471828722167935 25.400708584954174
2534 2 22.602548145067935 39.41909477896002 25.38391885693038
2535 1 25.36294784225855 42.24358265253004 22.64031157129743
2536 2 22.58860363518178 42.34910339539626 22.602182028810184
2537 1 22.56942825711497 39.447463228390305 28.150735652056046
2538 2 25.392579820010443 39.48018806020744 28.139924901443536
2539 1 22.56418709946908 42.22076063991699 31.077699269054207
2540 2 25.45350011316222 42.30472070208556 31.039243139576346
2541 1 25.3986496162501 39.53771197537719 31.008414650868986
2542 2 22.49200691467629 39.45346058141752 30.951816296904592
2543 1 25.405068535281217 42.302779558359475 28.155396559692427
2544 2 22.57873791289361 42.246781337767366 28.17146948457343
2545 1 22.586120371618 39.40037724404072 33.877460059661864
2546 2 25.350691768171686 39.421512487234835 33.85454053795334
2547 1 22.62327623618697 42.26446442950245 36.68934876818342
2548 2 25.35211418268906 42.315557310536 36.70479378999073
2549 1 25.339378321127025 39.44063727402551 36.640353932342286
2550 2 22.63003663891959 39.43705033054192 36.65635539523557
2551 1 25.349323654448686 42.25972034165203 33.799990693331665
2552 2 22.578923088480487 42.286783334296885 33.89964461268444
2553 1 22.538278469331928 39.537598871150095 39.515279250933794
2554 2 25.343403801855054 39.52160241259614 39.51037381106572
2555 1 22.54153984095538 42.285133187283115 42.35366426931028
2556 2 25.38583412516315 42.36227720022805 42.354184784024326
2557 1 25.43666030410898 39.461384303479285 42.26133391177978
2558 2 22.604385715144804 39.45816294927889 42.34424039308136
2559 1 25.37192608722171 42.25231510135616 39.530794042080814
2560 2 22.591987502982228 42.370222187957694 39.43190997007167
2561 1 28.262390008039556 45.11345145008401 45.11399430904506
2562 2 31.026447820943318 0.06906204078517103 45.060581183943505
2563 1 28.188279746924856 2.80347770624254 2.881228194782732
2564 2 30.962118864601024 2.781194665155797 2.810497344492271
2565 1 31.009705732746347 45.03587021574163 2.769075277682304
2566 2 28.163781830814195 0.049233802877195004 2.8483710933090354
2567 1 31.07609376498416 2.785927046236549 45.05337747725801
2568 2 28.245220636164596 2.783966840319721 45.043930712951045
2569 1 28.178619266929775 0.00048742755204119565 5.57938987345055
2570 2 31.00144812365049 0.046934838754369664 5.617935695526514
2571 1 28.238459410350643 2.897002078087276 8.477899685013949
2572 2 31.021084147140368 2.819687761169394 8.549091623261376
2573 1 31.03375302129409 0.026989120057232485 8.503131136469717
2574 2 28.185763184369762 0.03183319803814691 8.38912126280607
2575 1 31.058017734069754 2.873490775109974 5.654014560690654
2576 2 28.162057718179927 2.8097705251771634 5.719869134458053
2577 1 28.265130582730393 0.04823767468392744 11.266352882832924
2578 2 30.96999143288585 45.08651171586279 11.265697573472215
2579 1 28.20898689242667 2.845366741581397 14.050953486069817
2580 2 30.99736753555594 2.8235675204578574 14.145343903658215
2581 1 30.955246544065435 45.09941446642821 14.159959935138827
2582 2 28.21867870097537 45.05497836937788 14.036634464524498
2583 1 30.98916382249055 2.7532190469611644 11.275543711731041
2584 2 28.2889678677523 2.812952212293033 11.296602827624364
2585 1 28.14369258156355 45.08398438126931 16.94823987453353
2586 2 31.05760996726713 0.07171563796586297 16.958031190658783
2587 1 28.242363194352386 2.767296923402492 19.77948682172859
2588 2 30.967604969578897 2.832060556221248 19.784964821600628
2589 1 30.986434032968017 0.037936396080608184 19.727165235578976
2590 2 28.13920404992649 45.11149046963613 19.762076087437833
2591 1 31.04030861245598 2.9049852537687606 16.88823521007571
2592 2 28.14036124869408 2.8713564938722875 16.91753022987442
2593 1 28.140358031461417 45.07931113858506 22.521084736851567
2594 2 30.99051768689662 0.005688408545095495 22.49551237510092
2595 1 28.15041522845025 2.8038874372258733 25.422344764243192
2596 2 31.02718724582863 2.886620742588216 25.312954840174044
2597 1 31.023536929127047 45.11300004983009 25.469597447615207
2598 2 28.248773356019253 45.06909619725456 25.365724888764046
2599 1 31.050815846136388 2.7912787057516173 22.500930079930516
2600 2 28.180135038851965 2.907500826028878 22.566116888031246
2601 1 28.18621443332039 0.062466467155365725 28.21370405787594
2602 2 30.9711968645472 45.091369420212295 28.171032117402213
2603 1 28.245352704610674 2.838674071949803 30.933748201435737
2604 2 31.04490491213356 2.7582984340273713 30.999059229380425
2605 1 31.05378469522601 45.07948282179463 31.00214089917643
2606 2 28.17541159906469 45.05489498542349 31.082670862693863
2607 1 30.93829897028458 2.822631765290022 28.172557642461314
2608 2 28.242161759441895 2.8398471637604574 28.25531766162627
2609 1 28.16131881178439 45.10794751720951 33.87264851358095
2610 2 31.06400826798638 0.049824912715120975 33.85402315267946
2611 1 28.110636959521393 2.845874925027135 36.636224951057336
2612 2 31.052513732550917 2.7622502051080122 36.58554363950309
2613 1 31.00616341920305 0.049797796560335554 36.724834983401095
2614 2 28.1462066029161 0.0370490021032702 36.685745897625544
2615 1 30.951386540021062 2.7983054622657 33.87125074672849
2616 2 28.24977038299197 2.7658723559909144 33.832517186283326
2617 1 28.142737547849777 45.044536807325755 39.44803679758713
2618 2 31.055773183610604 45.07043721412716 39.46636819056815
2619 1 28.156864481710056 2.8122166049813733 42.241852954099386
2620 2 31.0194426900763 2.887240594955858 42.29724214771342
2621 1 30.997966580962135 0.04732101467009701 42.26958152622953
2622 2 28.26827138644029 0.0036086975849363655 42.283530553230655
2623 1 31.081817806575714 2.7816360853848994 39.50082877659379
2624 2 28.178327360555155 2.792025084583266 39.53058742405017
2625 1 28.196270982465112 5.631102186677226 0.05197803233532422
2626 2 31.043471505995374 5.711023831691541 0.04268563802976917
2627 1 28.238832051557786 8.424756781081483 2.87792703870089
2628 2 30.991223605140053 8.502924265271114 2.828786775281651
2629 1 31.062934928048243 5.6725371900471835 2.785263553811104
2630 2 28.25442326488762 5.616245731328584 2.8558668047313462
2631 1 31.0692315242195 8.42366144808583 45.100238705431494
2632 2 28.224939192568456 8.49726663317048 0.044430848586578434
2633 1 28.130759261485185 5.653018141026205 5.700857483679442
2634 2 31.08926418097249 5.632502187364469 5.63741805631558
2635 1 28.257279001346156 8.440738484052783 8.44470784902082
2636 2 31.084044622740343 8.49483930064074 8.490929318202712
2637 1 31.02389308317778 5.578120732787968 8.463012203512578
2638 2 28.196799671605532 5.580024955011832 8.454079895472066
2639 1 31.00896059014457 8.504642382140986 5.617618556375136
2640 2 28.241500124925214 8.435457454860295 5.721366619928678
2641 1 28.269749364906396 5.616371987760268 11.315942965796086
2642 2 31.068392397571657 5.697221247189346 11.26970782580254
2643 1 28.22065561734306 8.515840313986075 14.13094974428097
2644 2 31.063851079115278 8.527523516719311 14.084829522622538
2645 1 30.967089801818794 5.598978545323842 14.164876236179252
2646 2 28.22826442387603 5.646936186827257 14.017750125646826
2647 1 31.012352037910542 8.451409974759551 11.329289047575148
2648 2 28.202938245467063 8.514070832508496 11.260277343938089
2649 1 28.257122222723964 5.625783108928046 16.976255802501502
2650 2 31.056681691012493 5.588256339583942 16.969613856148403
2651 1 28.249915698692178 8.504319275348864 19.745440368595773
2652 2 31.10129024684746 8.48508997431582 19.718062148925526
2653 1 30.97834966999313 5.6064539239593945 19.75266297158677
2654 2 28.20146482208497 5.698907885633344 19.708156788989957
2655 1 31.059774321871412 8.385562285441077 16.902160489238742
2656 2 28.1917795025962 8.487059259682843 16.977654197845023
2657 1 28.14602327215811 5.596152446072281 22.541958759845745
2658 2 30.952854162361927 5.66071128206749 22.55901221539958
2659 1 28.25202061512535 8.432911602556015 25.375761749119306
2660 2 30.98482514505771 8.406755025462013 25.36361779320789
2661 1 31.061566907878635 5.598363424676063 25.455072384989716
2662 2 28.261904004158534 5.608915955006693 25.34012573543358
2663 1 31.064597951575948 8.43881786848239 22.549381921199835
2664 2 28.25686287736132 8.494533042319686 22.563615462389045
2665 1 28.197526603720302 5.717151475435499 28.24781754330928
2666 2 31.062768975705524 5.586992835613083 28.224413979054855
2667 1 28.24612278955046 8.481432493204004 31.04847109568165
2668 2 30.99046508531799 8.459245619543061 30.964311301321075
2669 1 31.069351332195033 5.609275930641237 31.032601609985903
2670 2 28.265241679410018 5.704503802297263 31.01391313248115
2671 1 31.054383802525944 8.422748783959788 28.2433886910373
2672 2 28.2282431263515 8.458594917919768 28.157879834396663
2673 1 28.127998959187632 5.6506098425009705 33.83614357343089
2674 2 30.98117520096848 5.638811740538395 33.87178608289019
2675 1 28.17000665389022 8.427147618544486 36.6279632462212
2676 2 31.022835234692728 8.508884339395307 36.737784525966994
2677 1 31.036622615277384 5.617801076341005 36.60181254863745
2678 2 28.271251010671925 5.666150491653531 36.624914263049945
2679 1 31.0856954004479 8.428174531930335 33.86507097448868
2680 2 28.120400799227987 8.48685077470474 33.87868128541097
2681 1 28.166929869584806 5.7082445065234335 39.515337643984694
2682 2 30.942788785683895 5.650899741679252 39.50970496242863
2683 1 28.26992843279028 8.429875919596837 42.24950040782529
2684 2 30.95072826533378 8.40084144103105 42.2792897070619
2685 1 30.995994621948793 5.655625155534345 42.252372612416615
2686 2 28.17603450987198 5.662219095142427 42.37691362045944
2687 1 31.070803908717018 8.530508681931991 39.480007165309935
2688 2 28.18773606390899 8.455990957898143 39.42075311491427
2689 1 28.163749892225333 11.209291719117846 45.075669351606294
2690 2 31.021971718782297 11.344214249276614 0.03542333272874102
2691 1 28.204357758095163 14.066695190512272 2.865955626184849
2692 2 31.05849516057838 14.085976524839 2.886943886568018
2693 1 30.94727359293004 11.292586582479291 2.8696770578896262
2694 2 28.117597187669066 11.26589960349941 2.808531181704127
2695 1 30.924885942379113 14.10327786620866 45.1051423160705
2696 2 28.153557089768576 14.05355809769593 0.07501119038390656
2697 1 28.142810531449516 11.344742896938998 5.629524870358047
2698 2 31.045233863312294 11.256554711281964 5.685766237526172
2699 1 28.161711498492725 14.154952781377716 8.529707219068039
2700 2 30.949077254730277 14.15073248935612 8.411535051725787
2701 1 31.086912016078074 11.32426093743165 8.425864788621432
2702 2 28.20501845736476 11.290592471079401 8.410737491005756
2703 1 31.10778296574831 14.096763032238673 5.67887052009128
2704 2 28.260726704668865 14.051329953018561 5.582873894184049
2705 1 28.15325775774911 11.309962738193818 11.272340240002418
2706 2 31.087609350435958 11.343957955561118 11.278068217961756
2707 1 28.286447743420343 14.120749751054847 14.056385654519563
2708 2 31.06735581196894 14.077623835729298 14.132499321988673
2709 1 30.985610148030144 11.337262274292085 14.100059831499099
2710 2 28.197570082047363 11.258263722627577 14.196267347473864
2711 1 31.019654807168372 14.127218295442429 11.230999679454259
2712 2 28.220509193485075 14.073891805319484 11.34731749908429
2713 1 28.22090901898173 11.257311169437287 16.97254952203585
2714 2 31.099871330021788 11.306501998776973 16.923436367640072
2715 1 28.22010130382331 14.042440880229542 19.72239594639685
2716 2 30.990513411778874 14.051710974172808 19.815026183168733
2717 1 30.998826573784388 11.312083360131094 19.811599550517993
2718 2 28.24447031807833 11.358992096592234 19.73223385849592
2719 1 31.050685260838748 14.061034849745301 16.858606456559283
2720 2 28.248311630170477 14.147685973208498 16.88506181107142
2721 1 28.225620779298673 11.256342514156962 22.507985244411643
2722 2 30.948999477902035 11.27981590325919 22.59218790884161
2723 1 28.25629375756423 14.122118577940673 25.35463176793557
2724 2 30.986149491319846 14.01791347487925 25.371573211685305
2725 1 31.086035235210353 11.273396737102473 25.409764159226242
2726 2 28.229472524090202 11.321465252550025 25.440083122307232
2727 1 31.04837311539936 14.100595740673283 22.517727919677498
2728 2 28.27578708813697 14.122631700244872 22.5802911263382
2729 1 28.21864166069803 11.258897775057411 28.125000888364045
2730 2 31.00066824277079 11.33482310639573 28.203775706537673
2731 1 28.216068495831735 14.098364976379804 31.088893805455573
2732 2 30.944169689001715 14.141424842530432 30.987421777605086
2733 1 31.05886785799609 11.249586888233095 31.089538025473296
2734 2 28.22059657087504 11.32309397255079 31.042440759869727
2735 1 30.977748758668515 14.115329166426294 28.225677985973373
2736 2 28.226706463479925 14.104319887387549 28.242071205324695
2737 1 28.162346203060864 11.278779976507654 33.911682483417906
2738 2 31.010007871534164 11.253591426601496 33.88797249154712
2739 1 28.23973224770097 14.026315027464742 36.700015935338726
2740 2 31.04763106751428 14.050263258210743 36.58422950419526
2741 1 31.036862334573826 11.348333117791533 36.65048698749532
2742 2 28.223715490629992 11.334784903492183 36.71545908015763
2743 1 30.98519194227412 14.056773991202306 33.82583206956156
2744 2 28.16575943686788 14.041440444104495 33.85346225029185
2745 1 28.271754121018525 11.298849275249193 39.42177631875985
2746 2 30.944479505977508 11.282188188549219 39.48286407320735
2747 1 28.15818363274703 14.139910011965373 42.32346433026195
2748 2 31.03411931076898 14.174247680799658 42.27309814789961
2749 1 31.082395930421345 11.277947160595431 42.31662398313103
2750 2 28.26495796839957 11.300182195383659 42.266726232177426
2751 1 31.000976083081262 14.153253875200495 39.39778071712294
2752 2 28.128183293418196 14.035045280475954 39.46153986079209
2753 1 28.25125836130744 16.95557229549997 0.011832838325755341
2754 2 31.04193477270241 16.98300601850721 45.052149085269086
2755 1 28.20838342280505 19.78477119738493 2.795583974738532
2756 2 30.987661898824822 19.81037609977214 2.820882030416051
2757 1 31.059313604591605 16.958144047485384 2.7983401477032834
2758 2 28.193051810040597 16.847434107650752 2.785588143197265
2759 1 31.00868261653995 19.71057638882342 45.068481070152174
2760 2 28.12198176233831 19.724610136757473 0.03757573837219891
2761 1 28.132916084618447 16.912746020975046 5.658840703141061
2762 2 31.002218335583137 16.839225854094455 5.609525973735145
2763 1 28.22335624374593 19.73865479588648 8.555375964994198
2764 2 31.07124219116828 19.78362687248223 8.45647686366986
2765 1 31.096054409193314 16.88002286117983 8.475367203691198
2766 2 28.28557309896446 16.900147778246943 8.42833827480122
2767 1 31.011996501995554 19.81934413665646 5.664923022839828
2768 2 28.213704518940748 19.777871159403595 5.583168629918316
2769 1 28.20054416750064 16.915777714998327 11.205662922134236
2770 2 31.007061979214882 16.90329105015914 11.22791854551001
2771 1 28.19025694846377 19.678877977215468 14.05746615298149
2772 2 31.04288333823563 19.708716468976654 14.053273919496512
2773 1 31.075499627192578 16.988688406204993 14.091657207308769
2774 2 28.165927364428537 16.85076521928585 14.072402549869292
2775 1 31.05267681297507 19.736779615174846 11.32754047593249
2776 2 28.177661210089994 19.705312023615807 11.216115758085266
2777 1 28.152258173474806 16.86407585116921 16.882490733598537
2778 2 31.108946410480108 16.963608699066786 16.910663714320577
2779 1 28.198046901187073 19.78770718564999 19.781900243989817
2780 2 30.97448970978235 19.7171027481998 19.688510477310324
2781 1 30.999764502914445 16.97234522373713 19.735824687047867
2782 2 28.185906294874922 16.886850881506884 19.688581891121856
2783 1 31.09088920531074 19.696584550743697 16.893527675383556
2784 2 28.22836099815472 19.78157950654142 16.908527490323177
2785 1 28.22400594774362 16.976552286883354 22.59729736360744
2786 2 30.99333014503563 16.98405346551218 22.518371000089644
2787 1 28.190569446507485 19.76099832318227 25.332425846489503
2788 2 30.980781413842184 19.72564417768885 25.40792452135472
2789 1 31.081146400125238 16.96077498528721 25.361498340996256
2790 2 28.245526793776293 16.908619599379055 25.351399425313172
2791 1 30.97566337086836 19.697553663513517 22.528863659865195
2792 2 28.229615993654647 19.764210486946205 22.597433870866535
2793 1 28.125012960028226 16.920587026586073 28.184313877946558
2794 2 30.969430861352954 16.90749873220096 28.208273903652128
2795 1 28.177841715654708 19.697495743999 30.99745054241895
2796 2 31.044863227459793 19.700532554081082 30.981736648151692
2797 1 30.989675102440064 16.96278838798188 31.035267238827917
2798 2 28.140140047752663 16.853335392292305 31.05287574838189
2799 1 31.02654795165727 19.68987161241381 28.13773372827993
2800 2 28.158659147126464 19.76550768076516 28.22630471952702
2801 1 28.25357130253412 16.88274291962001 33.789395982621414
2802 2 30.993369142901535 16.829933859797592 33.87411440708097
2803 1 28.261662725421555 19.701055240351263 36.59790178967765
2804 2 31.086503293472294 19.696115207201327 36.68857439562619
2805 1 30.972356133796826 16.980471744551735 36.641553688023436
2806 2 28.12324681667846 16.940676662167334 36.697921606185396
2807 1 30.999987765351904 19.814619658008837 33.899514877251036
2808 2 28.237219808756993 19.7363629194162 33.89843088088208
2809 1 28.212294576685974 16.99387667833019 39.44832408745214
2810 2 31.010491461315283 16.921951887085477 39.54386708573354
2811 1 28.18175952997186 19.696525911441505 42.36288057602404
2812 2 30.982012140061236 19.827517278697886 42.29097393738509
2813 1 30.96670981592421 16.85294884470371 42.32730970185858
2814 2 28.19761113784634 16.87929205358865 42.361748995764685
2815 1 31.03902502116034 19.761697310915803 39.55252978801212
2816 2 28.24667483319667 19.78169211832176 39.479498362258326
2817 1 28.20421545486887 22.599490000359673 45.08497353601389
2818 2 31.064441640579712 22.60122558269437 45.09505345685825
2819 1 28.138381274015366 25.393128522152253 2.8082354119050534
2820 2 31.039905597331224 25.310179790651546 2.8544948432686805
2821 1 31.067064841748973 22.534075603932063 2.7917492441050125
2822 2 28.27156692572615 22.590701252868904 2.8265191937803347
2823 1 31.084219393635426 25.360509100638765 45.08403827258465
2824 2 28.277862532360555 25.362298852145994 0.02807262598172216
2825 1 28.178894041710485 22.490776977923357 5.67194487048424
2826 2 31.047886717309282 22.535888592007634 5.7020983683723045
2827 1 28.29412186186394 25.347879617626518 8.451523829964282
2828 2 31.061497206727054 25.406450392562267 8.409355375491915
2829 1 31.02546464558319 22.567715809823007 8.39995257504519
2830 2 28.201033942560606 22.572223095995472 8.396832117384132
2831 1 30.998650624004476 25.450326989617263 5.572570722269045
2832 2 28.161846246763062 25.346873361302396 5.636432864610514
2833 1 28.250802318967306 22.619700836810388 11.221639563207923
2834 2 30.97472693915991 22.548741125850498 11.315892481379178
2835 1 28.16462360495605 25.40652338575037 14.026634490953079
2836 2 30.961467731855947 25.340504393679826 14.108262937222985
2837 1 31.037311645167886 22.50010192073612 14.026548389150046
2838 2 28.225603343472958 22.530985526039455 14.066263665840944
2839 1 31.059104524570966 25.360974860905344 11.205614662570628
2840 2 28.230041651708657 25.467789297042362 11.268206974216476
2841 1 28.226049654494215 22.572843796212897 17.0032733996729
2842 2 30.94659239446244 22.540802418387006 16.94990498985993
2843 1 28.220803973270844 25.455487243531906 19.735347946909762
2844 2 31.06460141181377 25.421959569552524 19.814053656880038
2845 1 31.057885001119143 22.57799838767805 19.77531197113077
2846 2 28.244472672738397 22.54743166467147 19.704341863846228
2847 1 31.08480844461273 25.33577585044757 16.9466705256437
2848 2 28.264831893405024 25.39430323158203 16.936634437637817
2849 1 28.25156701047022 22.549238361520818 22.565029631894976
2850 2 31.083676468466454 22.603910415982334 22.578711933023676
2851 1 28.120190018147596 25.364104261264472 25.395808341343216
2852 2 31.04823045398971 25.34599318811907 25.417513548001736
2853 1 30.99922130472943 22.645651652908555 25.392355910435775
2854 2 28.15624346209697 22.49687420609153 25.4172633008625
2855 1 31.049556865776573 25.400120644842037 22.599500589528535
2856 2 28.143422143099105 25.383782164631977 22.5856452964099
2857 1 28.284567344833025 22.57678968950515 28.156063558989548
2858 2 30.993038243141804 22.624116622916095 28.184235135922798
2859 1 28.18924864289683 25.31145059855915 30.985456920151478
2860 2 30.973709872691927 25.354240302578358 31.034539499753915
2861 1 31.045664755767294 22.620245417268762 31.043547350687767
2862 2 28.196303300624244 22.558103891100565 31.083844539637308
2863 1 31.05074085107066 25.286131469270753 28.195538108369306
2864 2 28.219520606664943 25.408084137837033 28.119362299931826
2865 1 28.18258877672354 22.612313584090067 33.77078683200983
2866 2 30.984700345684764 22.516057077845993 33.90471948623616
2867 1 28.168365102248796 25.35157896797666 36.62190961879139
2868 2 31.096433426396676 25.404283656693156 36.66235048467934
2869 1 31.029768642033066 22.627683925852498 36.66652740610875
2870 2 28.27478618913662 22.529022571549724 36.61035459203914
2871 1 30.981327270218937 25.411977821897903 33.91206505352962
2872 2 28.195824667311964 25.441523126916053 33.90209283754178
2873 1 28.26179403849574 22.548838227050936 39.44311431917815
2874 2 31.06658323478581 22.511268617835594 39.51688425873301
2875 1 28.16854422694137 25.406817376192787 42.34075086405003
2876 2 31.077810131534076 25.44276839513264 42.34665877230914
2877 1 31.01848237854465 22.482318965655594 42.268097268042744
2878 2 28.212194052561543 22.59643927611886 42.22915801818737
2879 1 31.069470370586455 25.382785900503407 39.51121776614315
2880 2 28.160653840571847 25.449730725824836 39.436166544930906
2881 1 28.267032545523833 28.18306565114112 0.04789009653213153
2882 2 31.014290590204226 28.22798379627033 0.04541850011182182
2883 1 28.267330743006255 31.044287987553364 2.7708877201488735
2884 2 31.05876032411356 31.054293041108284 2.7749909783006714
2885 1 31.01480750845172 28.137389589615246 2.8286631270084293
2886 2 28.177590156228568 28.153111860813304 2.764220365695799
2887 1 31.058487563952824 30.98961092805596 0.014463376971665106
2888 2 28.115643419861854 31.043611620813966 45.098923021689764
2889 1 28.255393305849395 28.168917663106043 5.691870779373209
2890 2 31.010741276962786 28.156120694600595 5.69367838100143
2891 1 28.268157279207703 30.97052189147172 8.494904416235396
2892 2 30.97505476116612 30.991609404660643 8.46254009875525
2893 1 31.060719015016485 28.14051047706065 8.414093551159551
2894 2 28.14224097976392 28.134419582674326 8.48602151202727
2895 1 30.98280829401948 30.967783816666657 5.667020633529933
2896 2 28.22072407070102 31.043521040474886 5.702337994983487
2897 1 28.145577751218696 28.1786380923019 11.234447755651546
2898 2 31.076331063346704 28.18750571211504 11.253473582179698
2899 1 28.223045352910844 31.030532679560427 14.184448078943754
2900 2 31.089636734411517 31.007310085777256 14.07604390601173
2901 1 30.996339038134636 28.188268722737316 14.18097415820306
2902 2 28.211398593535513 28.156930112656134 14.182871836882649
2903 1 31.01398018351703 30.952559190210543 11.27079555484003
2904 2 28.19095131934469 31.07739927011559 11.34648193063101
2905 1 28.23076470127178 28.25835338928912 16.897336115333925
2906 2 30.944192127948863 28.18787280734079 16.92320695209906
2907 1 28.26470915203981 30.984258002866532 19.798961096118344
2908 2 31.057547351532303 30.9748890858687 19.79649671388178
2909 1 30.98624955239369 28.12796387227048 19.7284106925868
2910 2 28.243174711778106 28.231307228983642 19.762020732597502
2911 1 31.022193122257303 30.92736903730485 16.93792257715766
2912 2 28.107087491788292 31.006292880981466 16.909375709407307
2913 1 28.175297549653575 28.162150351036814 22.48982295244934
2914 2 31.117104625008622 28.217595886533015 22.572270290128806
2915 1 28.26479887458224 31.076795784068356 25.370934596103858
2916 2 30.97537084248251 31.054937529578183 25.425908103607547
2917 1 31.0060668932564 28.265042907628217 25.32932926822209
2918 2 28.213754369003656 28.147649319841417 25.387351194795855
2919 1 31.052835122514107 30.968134207274833 22.51800916139797
2920 2 28.166254638965807 30.94375563612564 22.605309084255506
2921 1 28.25120461369613 28.180214930419737 28.21472608886006
2922 2 31.000514772711227 28.129444345679616 28.183297850835928
2923 1 28.21847829077512 30.952524313108842 31.007288199237966
2924 2 31.051806188834664 30.97398690297366 31.04217192349801
2925 1 31.005821744668673 28.205565984805638 31.114125525275035
2926 2 28.214055377114303 28.112436944798514 31.037987310099762
2927 1 31.02155537909813 31.01961865807225 28.148773378326947
2928 2 28.213826766608207 31.066841151363075 28.144188462074226
2929 1 28.22511296204473 28.24454442935726 33.86572647943118
2930 2 31.056863427291194 28.141083415251522 33.81366171348545
2931 1 28.244387427696797 30.963428278063528 36.67181953621368
2932 2 31.115091986267114 31.02911586955185 36.66795840346046
2933 1 31.007055001937623 28.17237351776919 36.74469130212161
2934 2 28.263825195054274 28.247406565483452 36.650150637938076
2935 1 31.015980742550056 31.079178044114258 33.88689156150081
2936 2 28.147883037668354 31.022399910618116 33.83416485868414
2937 1 28.13218657997207 28.205259132005867 39.49202104862087
2938 2 31.00620657276374 28.177990764753318 39.53417522318694
2939 1 28.16306584333209 31.01482655965728 42.23777452356806
2940 2 30.98902103499724 31.0527203282204 42.32598019732519
2941 1 30.960407651057285 28.188749452609322 42.2489932029149
2942 2 28.15910007022466 28.24783999664412 42.25582958063099
2943 1 30.95786987765652 31.05739502831097 39.44466266536497
2944 2 28.224222113230606 31.076405852116963 39.50547057938428
2945 1 28.282313715058034 33.83984602908581 0.018173877014762876
2946 2 31.071858503525952 33.77524742277126 45.07473723757706
2947 1 28.173439007977386 36.700841189052525 2.9014729959727594
2948 2 30.960273890876465 36.67466139422729 2.7973096643741084
2949 1 30.929566865356406 33.812043552465035 2.8214135167560825
2950 2 28.18111306101383 33.851223892027164 2.773870254271057
2951 1 31.02917273355764 36.731245042168304 0.017639418972831482
2952 2 28.172269466916752 36.588083713165894 45.09477298544743
2953 1 28.181090674305203 33.77082822880776 5.6517671450024425
2954 2 31.084818558788857 33.78319658310129 5.651296428165602
2955 1 28.240024138205744 36.71862978539143 8.406628926697948
2956 2 31.09654658904967 36.68319495148861 8.469723827224836
2957 1 31.08199639511133 33.8377785540936 8.395925610356633
2958 2 28.28030914556137 33.81572519460775 8.45477926048474
2959 1 30.96914355635423 36.667003900972425 5.712057968165661
2960 2 28.269691731143627 36.65702411144941 5.629827666786412
2961 1 28.239743781291597 33.870674714167514 11.337050032596842
2962 2 30.98390303727811 33.9071927848508 11.308416592287243
2963 1 28.217949518648393 36.64840874307208 14.148861230766554
2964 2 31.08882573164166 36.63898784409686 14.152581896754953
2965 1 31.00056253066439 33.88788804219277 14.116700932029469
2966 2 28.165604571713107 33.76214486855056 14.086928909849144
2967 1 31.082221405713312 36.60636804208142 11.288804739425677
2968 2 28.13925124591139 36.653001573130176 11.358330401258485
2969 1 28.178967864905946 33.89494399554231 16.957761831359175
2970 2 30.99202999584951 33.916658633559564 16.923248290937554
2971 1 28.16489703611692 36.71425116714851 19.795683905100258
2972 2 31.042512421162954 36.74441560397844 19.712021791853818
2973 1 31.064043933664593 33.78476850890862 19.81018072912961
2974 2 28.24498097944324 33.905678492411624 19.682911753975244
2975 1 30.991231923546927 36.7151385827352 16.857098710740193
2976 2 28.202782686470314 36.686869549601205 16.96896061726643
2977 1 28.26790369676189 33.87992136731639 22.51040028747497
2978 2 31.014612498152232 33.75063780122515 22.5874719533026
2979 1 28.286619179272922 36.69554743968629 25.40868253436383
2980 2 31.028997271458337 36.640073407720564 25.46644277089971
2981 1 31.108591676592418 33.81465747876087 25.359226678538874
2982 2 28.16411065575389 33.90241298246724 25.366443578426107
2983 1 31.00202150013486 36.748590232635586 22.548215372202648
2984 2 28.259869379895783 36.609394112995204 22.548957999920052
2985 1 28.19026793939305 33.903176627506404 28.17849118296656
2986 2 31.08499164838156 33.82030962214846 28.190202219526398
2987 1 28.266549512907822 36.59312041103673 31.023736911660837
2988 2 30.982747011003784 36.66602890799243 31.076845028927888
2989 1 31.03517567402917 33.899497801847225 31.061256900948305
2990 2 28.13465594249227 33.88398471305468 30.989150777749323
2991 1 30.939492784857958 36.626993172154016 28.24220315426895
2992 2 28.148955214507183 36.67117197496774 28.23295996842147
2993 1 28.216643794077438 33.79722618471657 33.899726510769355
2994 2 31.032325265921205 33.897177983240915 33.8191738202042
2995 1 28.267857631201696 36.624509083268954 36.71518542720257
2996 2 30.972452012449956 36.682449009520006 36.68493208427386
2997 1 30.992668304281626 33.88675852442416 36.651571032167126
2998 2 28.15024768430374 33.851729677351535 36.68371069186522
2999 1 31.081984638809654 36.71705148365363 33.877419593038844
3000 2 28.17641492126755 36.650308958803095 33.79280429896641
3001 1 28.15283437335633 33.866176582672054 39.48730297250595
3002 2 30.946214412308485 33.8744516235231 39.50556020478956
3003 1 28.231175188114495 36.67201179993604 42.24893841546048
3004 2 31.057572431606175 36.6850025591078 42.346198337774204
3005 1 31.037428755084463 33.78560761315456 42.34649407503717
3006 2 28.271573085428763 33.89904146405675 42.284911078678356
3007 1 31.012859388244387 36.6021228920504 39.446605307954535
3008 2 28.199766868093402 36.61373774120374 39.45085113698128
3009 1 28.188613437770353 39.522734669762976 0.05740273424089635
3010 2 31.036715166475403 39.50675891762783 0.06069757975519969
3011 1 28.289944297244464 42.31335728224215 2.8015829153657816
3012 2 31.031475246075146 42.22507431595988 2.810692702532772
3013 1 31.049907722576577 39.519541401464025 2.8511313843684922
3014 2 28.208774396586005 39.520811133892884 2.867525937794413
3015 1 31.06701967739275 42.25928796316869 45.08981686290899
3016 2 28.207426538253646 42.26368926038441 0.03929987475128945
3017 1 28.237551374041885 39.472696378430314 5.676571738608871
3018 2 30.954254736775503 39.493705848729086 5.642920314129185
3019 1 28.21441406597222 42.33439586876281 8.40028172259273
3020 2 31.01336713576632 42.3768357778568 8.427812525719952
3021 1 31.068103332735774 39.489587066869305 8.51722869491019
3022 2 28.212316534037022 39.438434376819444 8.431103520117665
3023 1 31.06203572932437 42.3534882755345 5.681515141144053
3024 2 28.19635537764241 42.33295667894924 5.710094173422563
3025 1 28.166749987439104 39.515242653434356 11.222187670085038
3026 2 31.086996761602457 39.46645342570931 11.319647647095794
3027 1 28.237870515192174 42.224110948795875 14.104526386260043
3028 2 30.997580607760295 42.31238662330517 14.053445610519914
3029 1 31.067932560768575 39.53315248292478 14.087572295772661
3030 2 28.281808595262106 39.44600846889643 14.082904577243323
3031 1 31.026329249757847 42.27489209094677 11.19522946742868
3032 2 28.272644661860777 42.30957050516994 11.238885446395889
3033 1 28.19321494665081 39.4383535312671 16.949271053662333
3034 2 30.96240830808625 39.488925407426436 16.93541576551932
3035 1 28.17106724374195 42.25655943986709 19.66213282622303
3036 2 30.94197430291645 42.329897862578136 19.75643945544405
3037 1 30.974883468487086 39.491229362136025 19.719323129778928
3038 2 28.169257732425354 39.46487126009886 19.813928641353286
3039 1 31.03527001759312 42.240206298711726 16.965596594140887
3040 2 28.153651268184714 42.33986167899484 16.958259951812817
3041 1 28.10529621710955 39.48810537265839 22.537987963781557
3042 2 31.012441302863348 39.56546591187377 22.58211234064608
3043 1 28.19985448292001 42.25967755630283 25.412377781521013
3044 2 31.01359097308757 42.37299776527056 25.382998756282152
3045 1 31.004195111336934 39.41984669668471 25.397571443651263
3046 2 28.166793530066606 39.52011758195556 25.430890589056997
3047 1 30.982011504187767 42.25341895577854 22.515990840600743
3048 2 28.16130171180272 42.29461893879453 22.515106738559272
3049 1 28.157296265363676 39.48303303401092 28.16875334206651
3050 2 30.96897995183983 39.47147141111072 28.13955966447733
3051 1 28.21686797532574 42.358084967855305 31.067731713114213
3052 2 31.070921142192837 42.36538227217009 31.014136620435437
3053 1 30.997318451831152 39.433193996558224 31.0627223968139
3054 2 28.1546630211894 39.50814531644192 30.994956906744463
3055 1 31.01906796172763 42.3126907142502 28.134084232199285
3056 2 28.25294612371969 42.25316277259547 28.13267348702997
3057 1 28.169739266766907 39.484812519084414 33.895366034686546
3058 2 31.077430214777603 39.49786281406731 33.81604517038063
3059 1 28.19065873991429 42.30230381558503 36.606488823162536
3060 2 31.006921184592134 42.297051870989584 36.57054078032354
3061 1 31.01200605960832 39.45192504173902 36.70732373714577
3062 2 28.223808566408323 39.409067968682706 36.673771383884535
3063 1 30.94904270895261 42.34877885896714 33.809170779357665
3064 2 28.192843155200183 42.35278822454813 33.80695583346531
3065 1 28.17914150971786 39.425168624456035 39.53998365339191
3066 2 31.07400870516271 39.48084123207001 39.46285513256386
3067 1 28.224292668575167 42.263198055036 42.38102051088541
3068 2 31.041010818083244 42.350052056378985 42.32859339622777
3069 1 30.99498598880776 39.414368177528836 42.26253186034713
3070 2 28.19676825010095 39.53686708761487 42.26841482314507
3071 1 31.065429744668908 42.23275797067258 39.43874079176299
3072 2 28.195778548873584 42.35075801129586 39.4732920191765
3073 1 33.90427867423026 45.09410053965468 45.09004910435619
3074 2 36.70102387313088 0.02467235001954034 45.052393842558644
3075 1 33.90017653836836 2.824029588956411 2.75467549025867
3076 2 36.63988830605629 2.7730219968967997 2.7911750736472056
3077 1 36.70280242282531 45.07966537876329 2.827564975224379
3078 2 33.875067294654365 45.09095159273195 2.76322537708014
3079 1 36.71876774379339 2.8603808417160423 0.051993037663686056
3080 2 33.8398938202931 2.859761708175929 0.05697473551264471
3081 1 33.82319417880927 45.10171625321776 5.689355508153965
3082 2 36.680365931249554 0.05725376383910857 5.667727169064853
3083 1 33.88114885180619 2.8512449033870113 8.420959645376135
3084 2 36.69511400410135 2.8109338912237685 8.407951325571736
3085 1 36.73662509701623 45.10425136968153 8.492216487826362
3086 2 33.76949491496326 45.10494291586607 8.431335397164673
3087 1 36.60097266567432 2.825040491605033 5.706698543437543
3088 2 33.843409168701385 2.8855101105518006 5.6480509018923915
3089 1 33.812536988585215 0.05519891725799363 11.236765497066925
3090 2 36.60161710278972 0.025849292205392883 11.223747961287335
3091 1 33.82366899925988 2.7729455402295984 14.116733441167618
3092 2 36.58821418895537 2.8614583128681583 14.10100330371243
3093 1 36.60308893418323 45.05631440929712 14.082550083321614
3094 2 33.85560535759889 0.015346939346398896 14.161264811104223
3095 1 36.711854510165004 2.8133910659673664 11.281724499625824
3096 2 33.805379263132956 2.8007485320300693 11.24596314717805
3097 1 33.861906881759865 45.11043480789587 17.015499008779027
3098 2 36.68586514559631 45.05922156699612 16.914598444468833
3099 1 33.76621554770087 2.8302964538271165 19.744206494871005
3100 2 36.615543322857114 2.8375450529932893 19.7586673146641
3101 1 36.71049473065948 45.10180264690755 19.753782668634994
3102 2 33.84218709296215 0.060228069934452344 19.779825236365575
3103 1 36.71581874964263 2.8548403379483336 16.883777169301165
3104 2 33.8171594960577 2.766585354505775 16.894171469214488
3105 1 33.833440180975906 0.025393551351487756 22.49516678762619
3106 2 36.696011745028855 0.018673586575375056 22.527780630754954
3107 1 33.806376446293534 2.892555993525009 25.410733296153392
3108 2 36.695567430238775 2.7579877691763452 25.38291444165664
3109 1 36.728221093330795 45.11521747130703 25.368687702004966
3110 2 33.82655669161427 45.107925674455224 25.43850594663542
3111 1 36.61649555108832 2.8953856871897994 22.591534461541016
3112 2 33.816898312211215 2.7798121274266903 22.533988032118486
3113 1 33.85307026646612 45.10185932512078 28.261821097366827
3114 2 36.7129079447567 0.04617881384267095 28.26596199158384
3115 1 33.86440598363563 2.8981371689504614 31.023835092112495
3116 2 36.69263168967994 2.7753307771064657 31.023003122870833
3117 1 36.61724960267413 45.0952260542214 31.053471495682984
3118 2 33.90547579748667 45.07301177755211 30.97197515683714
3119 1 36.602822563850296 2.827343318658978 28.1807199706263
3120 2 33.76111286163221 2.797600698143141 28.23751015672608
3121 1 33.84835813351562 0.052325705471756884 33.820865770361706
3122 2 36.6797910771867 45.074123101895 33.80346273825624
3123 1 33.805614969039674 2.8791001320691 36.711215187947005
3124 2 36.69268641296516 2.8843987337232924 36.69584077128554
3125 1 36.72301696946173 45.1152552159782 36.70234959402958
3126 2 33.85869343312086 0.025849314759554327 36.57675887360479
3127 1 36.64899137129993 2.848606784803897 33.79399302211824
3128 2 33.81106697397331 2.812818003716849 33.79091239585986
3129 1 33.89765577450358 0.05599190573542169 39.47186282735167
3130 2 36.71723237831302 0.06862334157621758 39.467443445516125
3131 1 33.809761293641195 2.86033864790209 42.276822541332145
3132 2 36.68358641885396 2.871535596473411 42.31678401749593
3133 1 36.73723494526679 45.1052862596888 42.30751872733607
3134 2 33.917872683259105 45.08874833039292 42.25044789900208
3135 1 36.66243132250771 2.8940401639842315 39.52430167363067
3136 2 33.78066800763313 2.898553782623149 39.47589245389007
3137 1 33.75576215322347 5.614788242701302 0.017631130222251
3138 2 36.68544729515669 5.703099182551364 45.076997098513054
3139 1 33.80310941290925 8.472293131812734 2.7748340481316927
3140 2 36.64850749632497 8.437398176578421 2.8985347399362418
3141 1 36.69423920930869 5.689763376753054 2.7649111790158623
3142 2 33.78969735424615 5.6511254244726405 2.832698993558987
3143 1 36.71259686030715 8.453845347750972 45.08095319483414
3144 2 33.82727851174373 8.506646539863635 45.10677432335139
3145 1 33.8044859771526 5.628134675602497 5.678114960376096
3146 2 36.59869373911055 5.579292894634667 5.67097336204664
3147 1 33.893260182681146 8.45403062906231 8.494946801662316
3148 2 36.61597945483777 8.432911316911568 8.388428661063694
3149 1 36.697075824405914 5.592026971728871 8.502658763946865
3150 2 33.89519801113286 5.629098352889843 8.517623492095572
3151 1 36.61960791443674 8.51734459613132 5.61151789564819
3152 2 33.78853646551172 8.376791063759562 5.651460532224875
3153 1 33.793549798603564 5.682053337471233 11.292882929769519
3154 2 36.73244385984688 5.653876039477046 11.291286255458983
3155 1 33.89360970160548 8.42998346640071 14.069082569285777
3156 2 36.64836340388797 8.369711847935633 14.115628543188928
3157 1 36.623516330183215 5.6929010138131915 14.04686583783652
3158 2 33.84049600560872 5.5886659149032285 14.0541444779536
3159 1 36.692566733271974 8.489648518140001 11.243919050586523
3160 2 33.85839949064865 8.469935564529736 11.336001225410591
3161 1 33.76530135208442 5.623658391607065 16.98015395731491
3162 2 36.661012667808265 5.700609305164741 16.949463096160343
3163 1 33.83362432627128 8.516622288872407 19.728543827559342
3164 2 36.57950185648849 8.503797147025645 19.770984588635958
3165 1 36.657054603725705 5.6614908128725165 19.686350631034696
3166 2 33.78856750148514 5.642926800723238 19.79379323678158
3167 1 36.6875072671166 8.502314176265564 16.932545593543455
3168 2 33.793943183630816 8.445300327417359 16.900706768395555
3169 1 33.86339118608355 5.693822656446034 22.519000365415845
3170 2 36.626020179404925 5.634935528454859 22.647267402449973
3171 1 33.89171513370708 8.389032945161391 25.396066159405656
3172 2 36.609384560078574 8.516134840833365 25.432994941924242
3173 1 36.72067552471648 5.602023898474738 25.376818290591363
3174 2 33.814647616871646 5.693252220033049 25.373374087324063
3175 1 36.69537917962716 8.523462729140336 22.500223265957157
3176 2 33.89055028878252 8.516996334478078 22.52030653805635
3177 1 33.82124083279266 5.603091453957159 28.26324223234348
3178 2 36.69724146571494 5.66578706788742 28.23254679083335
3179 1 33.90897345256611 8.500994726474138 31.005662851528502
3180 2 36.69739917994372 8.486107742370463 31.044003992367227
3181 1 36.68815671376211 5.62678108755363 30.97590564697432
3182 2 33.85447406211048 5.718459296392774 31.041355092772154
3183 1 36.72996954931113 8.439018845958183 28.24728712443861
3184 2 33.8100737464029 8.441490629060157 28.127037192225153
3185 1 33.88953033475897 5.6971717723063415 33.820839424889414
3186 2 36.575655475331146 5.588287155634913 33.85346165911085
3187 1 33.900149051426645 8.427351129192655 36.61822284841844
3188 2 36.688929108245596 8.546248826102337 36.63807036980746
3189 1 36.60686963621725 5.681630694288762 36.71418049545184
3190 2 33.858896477781364 5.573438403146375 36.72819398097894
3191 1 36.651939530437076 8.378099648603909 33.85808951456013
3192 2 33.79512123236021 8.489961552106928 33.89158832380021
3193 1 33.830785245313066 5.703600832542071 39.474970252616416
3194 2 36.72622290436863 5.587246022127668 39.525708668038725
3195 1 33.81677004264025 8.469032238477336 42.34647203935361
3196 2 36.60209163790081 8.397315189826227 42.26477827574168
3197 1 36.67500733674665 5.728241661204076 42.32916232623839
3198 2 33.892793177933186 5.631824968534971 42.25915910242029
3199 1 36.67053571035494 8.40714862519933 39.46083581859466
3200 2 33.82906722479735 8.38826069769615 39.54239559030638
3201 1 33.868156471374476 11.196802119664145 0.04097836647966493
3202 2 36.61894229820042 11.23034313907191 0.009405602281362307
3203 1 33.82826794378055 14.146927596864597 2.7926107356039394
3204 2 36.59814841715694 14.061028385052007 2.8267855074013966
3205 1 36.61907690787986 11.258656760048728 2.7969074705549097
3206 2 33.756655055105156 11.2684839021827 2.8033445810803865
3207 1 36.67433185271788 14.091969958868601 45.06732743068711
3208 2 33.79324830528846 14.144066782018127 45.07001952459677
3209 1 33.89722687478346 11.295391143080895 5.59547042201271
3210 2 36.66680176052621 11.222984717600843 5.715369398610837
3211 1 33.7622926607478 14.091467476970646 8.41894641083302
3212 2 36.69852531324161 14.045243891965738 8.403623997243875
3213 1 36.680279863231526 11.241734242806105 8.523971820146176
3214 2 33.78052670358675 11.263778239020903 8.414332415631172
3215 1 36.593158883195784 14.087322976065183 5.580692919116857
3216 2 33.86020566606015 14.022102645739492 5.607156094648933
3217 1 33.85171270130079 11.340034424473078 11.309379590810826
3218 2 36.637751559437476 11.242452660425988 11.330931264484088
3219 1 33.84938360850719 14.055754523701921 14.146678987678133
3220 2 36.723303775693715 14.142940482490408 14.100963484105943
3221 1 36.63091592241564 11.331883962101102 14.083017228030739
3222 2 33.84451678918242 11.339760597192967 14.15883826941862
3223 1 36.68633960766595 14.121738783753383 11.221309416874066
3224 2 33.77882843617738 14.16891829277696 11.276519981620485
3225 1 33.78226374388494 11.308268751960997 16.89852516162864
3226 2 36.68231092720796 11.292823920738355 16.87548303232036
3227 1 33.81070527114551 14.063054986490354 19.763544413262306
3228 2 36.60893004216528 14.102040183294564 19.778314076204538
3229 1 36.65247606205918 11.2535196226334 19.807830032673408
3230 2 33.84535108130649 11.207600808501887 19.767721915381745
3231 1 36.62260498528976 14.138993715294763 16.941137825409722
3232 2 33.81715215729987 14.143068801307944 16.86627630909554
3233 1 33.88503011499842 11.23276500173645 22.566296622851098
3234 2 36.66364840105571 11.228331464379112 22.61082290585285
3235 1 33.854208869527014 14.02425296797488 25.375484325673458
3236 2 36.700037398982765 14.156812016582919 25.446685125458025
3237 1 36.59802155451157 11.273037179884769 25.45106645276047
3238 2 33.8945709268844 11.264590680828242 25.41425414064155
3239 1 36.59991697516633 14.07754390651881 22.56041979317488
3240 2 33.82549942785632 14.149198806749672 22.534537998427464
3241 1 33.892706349318715 11.318796342183996 28.259992906738884
3242 2 36.57271496737042 11.282975902968918 28.241070752875864
3243 1 33.88359496520954 14.091277142005515 30.946475690387178
3244 2 36.71257614561358 14.104545015142353 31.033985599148888
3245 1 36.6965832437489 11.254862531107714 31.082455109382536
3246 2 33.78162390610816 11.3455192715803 30.992018137173332
3247 1 36.64807222460845 14.011981756530805 28.179228666916053
3248 2 33.88369491368216 14.058884303921506 28.21347130351014
3249 1 33.842389033512845 11.205807968350731 33.785498015560606
3250 2 36.66452729651301 11.242457521327388 33.78806867197521
3251 1 33.89658864854682 14.02458910837198 36.65421385454868
3252 2 36.61286448714002 14.098084855743766 36.74348083543019
3253 1 36.66730508228869 11.304836573199012 36.74256549855819
3254 2 33.839603063977826 11.35968419457917 36.696012249450305
3255 1 36.68913218371616 14.03502380951625 33.87952247398348
3256 2 33.78887543280596 14.061353363993897 33.812397893120604
3257 1 33.90070759716006 11.311296590635576 39.51784042803141
3258 2 36.67708901168735 11.35159167594371 39.47847370226637
3259 1 33.903900873795735 14.146873536799403 42.339864101544514
3260 2 36.695335466978335 14.138137843900472 42.36625426493531
3261 1 36.6539829750752 11.196894437082399 42.28357007752609
3262 2 33.862383530756375 11.330767712978652 42.315593779977405
3263 1 36.71934006223742 14.052195485684994 39.45992644036993
3264 2 33.90135790935989 14.165957674526595 39.51563580024957
3265 1 33.87556610555561 16.87442289369495 45.061660458041025
3266 2 36.62677311634816 16.972784873262697 0.029715968142129384
3267 1 33.794076366533844 19.769251610334795 2.866598584003735
3268 2 36.594167335133974 19.749975291454987 2.8773941382692976
3269 1 36.61667553103762 16.966683071991316 2.823547248783256
3270 2 33.83456072989541 16.88228734899162 2.856153327972443
3271 1 36.635593083983316 19.697763268593718 45.093697179444455
3272 2 33.856894277397025 19.667102680193324 0.03415241937878871
3273 1 33.743761035460274 16.910320619518984 5.617181269000014
3274 2 36.728685745809024 16.95970179211358 5.641561136904279
3275 1 33.86378662216093 19.720250190358378 8.508364904784232
3276 2 36.67618553124775 19.78694950750056 8.472869807754906
3277 1 36.708998920639964 16.930081903933914 8.465790470131093
3278 2 33.903166228821554 16.91911250990325 8.513695669974455
3279 1 36.61821022344635 19.703839062842466 5.6781621066977435
3280 2 33.827720882542 19.73539184074931 5.589298461069295
3281 1 33.823781550354184 16.90465631431576 11.336997493441205
3282 2 36.72550371534233 16.88663676456542 11.312045221891147
3283 1 33.79525250898934 19.752575678086842 14.120073149104776
3284 2 36.69620151315512 19.709014110916144 14.120118491413745
3285 1 36.637294166901285 16.965275158231336 14.115230328973002
3286 2 33.801373086513166 16.94496874545325 14.050097093620971
3287 1 36.657492922467355 19.81449519918126 11.274710335971719
3288 2 33.779614058275044 19.71112501188474 11.250111491589958
3289 1 33.87269668585126 16.94300910628299 16.873504961881142
3290 2 36.72529781197161 16.982825552838975 16.933634501623235
3291 1 33.76454487327432 19.772716519233345 19.754384980955177
3292 2 36.68516783199119 19.67172955132511 19.720108039606856
3293 1 36.66346434575433 16.899956783757975 19.79966330752642
3294 2 33.78075969146783 16.94584018643605 19.79826568438681
3295 1 36.71415452666808 19.76253347402896 16.937590688093675
3296 2 33.81902160168619 19.730377712143735 16.84281448388066
3297 1 33.77959153589032 16.90377979127824 22.552349754034154
3298 2 36.71873021527568 16.953409817670572 22.498093107623735
3299 1 33.87712174505876 19.753131753659815 25.312040007471406
3300 2 36.60111816746471 19.728218757600942 25.41173947040449
3301 1 36.679350429738506 16.969629737693765 25.30891292796646
3302 2 33.84106178933463 16.84057035791528 25.404376615425786
3303 1 36.67721921600069 19.6882909739828 22.498854386853953
3304 2 33.777782885853625 19.74127637368712 22.587709114875754
3305 1 33.90582103617181 16.98399619607801 28.23089545717265
3306 2 36.60950505796197 16.97936964465872 28.237313211164214
3307 1 33.88393933408047 19.79750571080571 31.025860934870238
3308 2 36.56460770874474 19.743769213292953 31.021793379873934
3309 1 36.62552666795057 16.86541126797198 31.039655478015803
3310 2 33.827013979077826 16.92669679809286 30.953034919749726
3311 1 36.61904516814023 19.73298857225736 28.148897384081145
3312 2 33.81788970057606 19.65423551993619 28.23423803407048
3313 1 33.84533771053837 16.98157363475877 33.85750672313727
3314 2 36.62778493557984 16.978315565456306 33.86614052304283
3315 1 33.904087970864815 19.730560756051432 36.68134580473387
3316 2 36.74706291984088 19.717310426420088 36.656917500044095
3317 1 36.57674782895004 16.944107174096978 36.68091749248376
3318 2 33.86599599921249 16.859807680910748 36.66857401607288
3319 1 36.65585115979965 19.69316069032822 33.81432446036634
3320 2 33.80326657443897 19.701501651436107 33.89741785470855
3321 1 33.85175701809504 16.956608482527688 39.51726799513181
3322 2 36.634460287190635 16.894108949033818 39.415538608730536
3323 1 33.858887044832976 19.692121958305798 42.33147150890734
3324 2 36.71127339586312 19.747267076912387 42.24502366523401
3325 1 36.69456389007017 16.905164488721898 42.37411573166416
3326 2 33.81146961987459 16.937573438200104 42.251342906233305
3327 1 36.702702483499316 19.762438271414787 39.52756108571519
3328 2 33.779107176969404 19.809505278714067 39.44449974049078
3329 1 33.8025323095913 22.513175298786074 45.09355333192742
3330 2 36.63236821986848 22.653784737683512 0.0027082239866414357
3331 1 33.8532721747274 25.440845064035948 2.8975707351280495
3332 2 36.63358040333574 25.369845284435034 2.8969508732825764
3333 1 36.64017794760587 22.54140186058195 2.7634372659252113
3334 2 33.89528048875693 22.58623534676747 2.748352651951275
3335 1 36.62449651870265 25.365562114684124 0.05354457715682022
3336 2 33.80194053647964 25.46966399437936 0.0013481674944403042
3337 1 33.806937158935476 22.51903113461638 5.6719960132004195
3338 2 36.5811848078663 22.545063514855578 5.6736049836210745
3339 1 33.785412018908815 25.38405006101628 8.412445851078449
3340 2 36.7014174085485 25.340981665530293 8.484761323221248
3341 1 36.742474021794386 22.596527962769706 8.45413315550161
3342 2 33.83684443635657 22.488276232904145 8.452982380238302
3343 1 36.71340382415759 25.41773216997575 5.584333740803236
3344 2 33.88372862092198 25.350979591846393 5.6035420405485805
3345 1 33.84388255151116 22.646834511881927 11.31351379564588
3346 2 36.57968058817171 22.579207417109707 11.249616250125602
3347 1 33.841590704213786 25.416464869014877 14.180225666549214
3348 2 36.59709279508221 25.334641796793584 14.105175025506876
3349 1 36.68915069403186 22.50296833045382 14.070531928493219
3350 2 33.78463037416267 22.595490031530908 14.100760661542015
3351 1 36.64357894842551 25.423885414535814 11.256217574898578
3352 2 33.83427700005304 25.45811042788982 11.23979861043388
3353 1 33.90933419623598 22.62809409445445 16.90531287143825
3354 2 36.660378518862494 22.60294752767987 16.872198594504933
3355 1 33.78269892006039 25.39040898835761 19.71411874595259
3356 2 36.624724713733265 25.35922157008544 19.686391813006107
3357 1 36.6461502430194 22.503140021339423 19.76701548588266
3358 2 33.831244267127275 22.497013571509726 19.67869539517305
3359 1 36.718280510736086 25.370953873428533 16.93206359311946
3360 2 33.76072518241987 25.325984937045316 16.94488057577151
3361 1 33.84402102824767 22.64709796696625 22.53528986837053
3362 2 36.67941020581083 22.512694750320012 22.50597406269874
3363 1 33.808947665184576 25.33453149408627 25.334491748914772
3364 2 36.71017574714508 25.353348343519542 25.34595797298988
3365 1 36.71976809374168 22.57086776837874 25.31117333037957
3366 2 33.874941048800224 22.587178573577614 25.354449025203724
3367 1 36.69623481342753 25.411324178430498 22.531544365174206
3368 2 33.82912608348519 25.408371336180842 22.511020923412893
3369 1 33.829914406233904 22.515956617789133 28.150752900346465
3370 2 36.66660980884284 22.617970659108966 28.256747885728192
3371 1 33.91539938608682 25.375304082286497 30.963081133703366
3372 2 36.72029011427949 25.352181402061653 31.075272478561814
3373 1 36.59652349656792 22.528002901383992 31.085282061168808
3374 2 33.848719697258595 22.573878663363935 30.948674178312555
3375 1 36.715420726687455 25.365939418770527 28.23247168371642
3376 2 33.833138690951756 25.338774326696818 28.27543101506151
3377 1 33.898443044851625 22.616520540418787 33.868407326980375
3378 2 36.61292952769116 22.56477470941487 33.77884468816138
3379 1 33.881294080027516 25.302784433903625 36.62824847211043
3380 2 36.60121839645765 25.35652376095695 36.657939305806075
3381 1 36.63096208042787 22.529031944279854 36.74309455741957
3382 2 33.83071572880879 22.484328149666418 36.60094953021883
3383 1 36.69263663319611 25.354090822107864 33.806006252069146
3384 2 33.88416140224802 25.375933362800073 33.76919402612465
3385 1 33.921744840397494 22.593094636037026 39.484292616907304
3386 2 36.693857947172155 22.613251889197116 39.510777708149924
3387 1 33.872913423372175 25.36567357456092 42.25569244514279
3388 2 36.75066472022306 25.36040963549423 42.28516097172672
3389 1 36.70740816065014 22.614688643625403 42.320298990091075
3390 2 33.88864463351227 22.606711525341233 42.30186375209095
3391 1 36.67321169885967 25.43533235033157 39.511263775594095
3392 2 33.863011397218735 25.331494219400312 39.48091030979829
3393 1 33.86657481752335 28.118401302814306 0.04015532790854004
3394 2 36.653288083736335 28.242272242804482 45.04466705771479
3395 1 33.751866717044635 30.97997584028967 2.839634963351058
3396 2 36.588986936379825 31.05287630424629 2.7909504126555857
3397 1 36.61234209207737 28.215118286171222 2.8944675370620723
3398 2 33.842042972996595 28.22554429041219 2.776987141947299
3399 1 36.70202361011297 31.0247698047138 0.03351259945026344
3400 2 33.884872854628945 31.012888673645914 0.08659081731944156
3401 1 33.82474188165802 28.21470535110152 5.692818957399986
3402 2 36.61527835759181 28.201660902624145 5.6951696995666445
3403 1 33.91795320630282 30.963725118666915 8.446687633017877
3404 2 36.6647938569418 30.99145600980084 8.402154904985737
3405 1 36.694144972996455 28.25518361805719 8.443181727321232
3406 2 33.86204604349831 28.230208201185732 8.49541600387456
3407 1 36.62887729849917 30.958558439660234 5.6116648336190975
3408 2 33.89356533246764 31.017015965827085 5.616316184948728
3409 1 33.78535274774912 28.230023383362386 11.300728072772316
3410 2 36.59741869739878 28.242089182089263 11.231472995505742
3411 1 33.81590781939055 31.009788622896988 14.01569526152216
3412 2 36.624946318464474 30.949465915392743 14.110087986145507
3413 1 36.69389928102451 28.244454704063195 14.130759327373646
3414 2 33.91877029549858 28.187441892696302 14.157414449609679
3415 1 36.690823063874795 30.973898171297392 11.267160015952285
3416 2 33.84111088231754 31.084649138737326 11.29011286501914
3417 1 33.76587373785268 28.174651871373104 16.963448347563737
3418 2 36.71089547292173 28.244104868931032 16.9657409074628
3419 1 33.89891344375181 30.95514976020096 19.72380675552045
3420 2 36.633441035255714 31.017775182063293 19.693304890618442
3421 1 36.70070347036722 28.216345372212913 19.80298761526238
3422 2 33.90068974209072 28.20622665724263 19.72127261160629
3423 1 36.6706659534694 31.074491664460986 16.952014636152125
3424 2 33.85143756864374 30.929139700454932 16.956277935154535
3425 1 33.803073538277246 28.127150935643275 22.57392768872404
3426 2 36.73303103676025 28.15281248542448 22.514755921538647
3427 1 33.78919760817348 31.04680901517591 25.319740189751013
3428 2 36.60312479623584 30.97792370918729 25.396564319825753
3429 1 36.702109743925455 28.178783242705958 25.350741204037735
3430 2 33.817466337544175 28.219655873539658 25.432493672018758
3431 1 36.668641975639275 30.97466657421351 22.519968102684334
3432 2 33.78860533705041 31.015419952381677 22.588146289713688
3433 1 33.931775273484234 28.180226950569434 28.22553712841942
3434 2 36.707780119875004 28.142422553507505 28.17351003859488
3435 1 33.85361211342205 31.02025519871795 30.948797475562557
3436 2 36.563692747297296 31.00258720080446 31.01039266194232
3437 1 36.60775093333339 28.25582388806071 31.001415396688497
3438 2 33.88000341704626 28.18600118564658 30.979340645372996
3439 1 36.63227976416931 31.04263601182472 28.121472355347578
3440 2 33.90652716680887 30.97722286021049 28.206313972439872
3441 1 33.93134850633331 28.219457474976924 33.80894046936276
3442 2 36.60416688708793 28.196337386489766 33.8771167911352
3443 1 33.78927182507099 31.04521208141717 36.718562331747286
3444 2 36.71764797882264 31.08512885169517 36.65935189638208
3445 1 36.701576154367885 28.130131514527847 36.689136908229855
3446 2 33.83062477534259 28.114189157998297 36.66860434561517
3447 1 36.599744608960954 31.012486098233556 33.82089517761309
3448 2 33.83097217368539 30.970977929076735 33.889039490633316
3449 1 33.84446013763499 28.208078644934247 39.38257980474891
3450 2 36.693202904981284 28.258495496354683 39.47909910369522
3451 1 33.79589629697147 30.99669858155909 42.3190752574877
3452 2 36.599193369541766 31.017083564908877 42.29737360376127
3453 1 36.64645645128381 28.27974118323149 42.28994638888914
3454 2 33.77116029154985 28.15994192862749 42.266511758061796
3455 1 36.617452086706905 31.0724941394881 39.50158027932672
3456 2 33.83831393788497 30.991478817351247 39.43842410171447
3457 1 33.832360554128265 33.775164321841565 45.080515803265286
3458 2 36.70844836392789 33.824414809354465 45.117852020884335
3459 1 33.88530187519969 36.637268834869204 2.8228324558157056
3460 2 36.64655836805461 36.7227321621108 2.7595321581539585
3461 1 36.65665541903776 33.834569800039134 2.740213583576698
3462 2 33.84872670452118 33.88128087141484 2.851536560409297
3463 1 36.704184210169835 36.66128375495939 45.052932706164256
3464 2 33.859861057550845 36.59834838390194 45.115204913840614
3465 1 33.87715020135681 33.81348975875645 5.612481031017749
3466 2 36.61086927559439 33.810645305484044 5.595713961943033
3467 1 33.85403856768756 36.68373390799225 8.374341849766619
3468 2 36.67494864426024 36.5858178693942 8.514048657613344
3469 1 36.67609596836806 33.90837362301504 8.51222884355635
3470 2 33.85639850571359 33.83963012715551 8.514375131586757
3471 1 36.67703846842668 36.67658945783651 5.689303076681918
3472 2 33.791045453750016 36.67004594384369 5.61137590981391
3473 1 33.80816756418553 33.841165883010454 11.320088108703716
3474 2 36.593423624977284 33.82260857804805 11.215279655260186
3475 1 33.78603829072848 36.66458274723442 14.115109207131988
3476 2 36.726995198549716 36.626601792708 14.077321406408073
3477 1 36.62024243846704 33.894201004870936 14.048024579676444
3478 2 33.769287666675815 33.81559870894006 14.12661740392523
3479 1 36.69495330644499 36.64381259368098 11.238592392930713
3480 2 33.873825091307 36.67725787839446 11.245530707962915
3481 1 33.906331599864394 33.900328537585956 16.916940680141938
3482 2 36.62841043380484 33.88862243007864 16.96828265940913
3483 1 33.846446177296215 36.63130004735326 19.805315909650403
3484 2 36.616821334104905 36.722722491585415 19.719334845983592
3485 1 36.61589412237842 33.872159837114985 19.802035721574036
3486 2 33.757200530123605 33.85041020275117 19.730631418575665
3487 1 36.619061948795185 36.64300668562944 16.842370994905195
3488 2 33.827997664165785 36.6103766687853 16.97882805037086
3489 1 33.82623318036832 33.88467413111381 22.54192263705014
3490 2 36.639716066575886 33.88376808920468 22.54683514637136
3491 1 33.77624495884589 36.59850621464868 25.36895724495433
3492 2 36.68270793632505 36.614876547677504 25.422460724812268
3493 1 36.68103658845492 33.89140860123515 25.402204114560238
3494 2 33.86950399952846 33.854589836564614 25.451267545495686
3495 1 36.62137895592006 36.677006448631104 22.648637684249824
3496 2 33.77194045744723 36.63503303572016 22.558057648194684
3497 1 33.810323342841556 33.87411174068796 28.28449805662843
3498 2 36.732911851021015 33.838470530664246 28.2587324050717
3499 1 33.809415766068824 36.67198852614306 30.95832195299979
3500 2 36.6981771040619 36.62330986156503 31.040881031661737
3501 1 36.66216462484073 33.9052050185363 30.961726610596173
3502 2 33.81837034251818 33.91107706940596 31.08317184160071
3503 1 36.630725670875094 36.67939850844775 28.239153976935718
3504 2 33.81124716107719 36.70271856794207 28.14281992732172
3505 1 33.825614964605755 33.90280232032759 33.840518507269216
3506 2 36.60102030991483 33.88465095991229 33.86488806772449
3507 1 33.912358789539965 36.63158977269894 36.658664348018924
3508 2 36.575052618172435 36.69046484156191 36.65559083485505
3509 1 36.69253129030844 33.77960002464431 36.708815190437456
3510 2 33.873073764497576 33.79813256453434 36.732665685645614
3511 1 36.64706693006537 36.70218684071609 33.80638912259367
3512 2 33.80416760900359 36.61658136285122 33.761707480774206
3513 1 33.86777847579626 33.88764605035378 39.42211798298322
3514 2 36.70667126609271 33.838287024480294 39.44600601332832
3515 1 33.76684775300153 36.59326388002761 42.310151826821716
3516 2 36.615882554019095 36.63366959099664 42.33597460713736
3517 1 36.69284826970658 33.79942536953668 42.2495974484693
3518 2 33.887959980800154 33.826760703516776 42.221977196994445
3519 1 36.723778278601394 36.652519359012764 39.48255042040215
3520 2 33.79314641531405 36.635526376177765 39.48938218000756
3521 1 33.833327391917614 39.52058539983048 0.03471842266616151
3522 2 36.58621855019057 39.44037943673788 45.11327807741848
3523 1 33.82891329775425 42.33128673860982 2.8733174713645777
3524 2 36.62273087179576 42.296840965740635 2.7741871323805345
3525 1 36.64986836677233 39.51955326501685 2.8970999946330735
3526 2 33.92028183642704 39.49314219792045 2.7761376124103925
3527 1 36.66050320572273 42.302199722940514 0.07907923850207063
3528 2 33.87709321547571 42.281993341761144 45.065303956562914
3529 1 33.87585891386183 39.540785366363494 5.577681283566242
3530 2 36.637374903388064 39.56469400671177 5.601058450374591
3531 1 33.86059471205411 42.353486850160984 8.507489784797865
3532 2 36.63722762393371 42.38968339312713 8.457483053553263
3533 1 36.69004337196609 39.45266810677552 8.546411335548983
3534 2 33.90640537343449 39.491845997265486 8.530320278865963
3535 1 36.64876326190532 42.29276647094371 5.58763266388583
3536 2 33.888458062749926 42.278904799816665 5.705880890351041
3537 1 33.826994665223566 39.544338790631805 11.324233233012558
3538 2 36.610267358931175 39.46190407540177 11.313812985685843
3539 1 33.87923176564532 42.33891044048199 14.09133804336515
3540 2 36.618914087520615 42.30696099946472 14.069007321568334
3541 1 36.603637029798534 39.4550507562225 14.112590052937811
3542 2 33.809908672428584 39.39771765040002 14.081597751018993
3543 1 36.658716206023016 42.36061227547076 11.25551503606777
3544 2 33.8995394020019 42.336622743465654 11.250468773370951
3545 1 33.758651365879636 39.47510368349353 16.909327277168476
3546 2 36.653238606792044 39.43217477951948 16.89417529008099
3547 1 33.76101916170595 42.29754829900307 19.7163324444002
3548 2 36.62220879578888 42.34761608901401 19.76172092647971
3549 1 36.56475703327973 39.486250213157575 19.767396502166893
3550 2 33.90351020578989 39.46291096333541 19.74898157868611
3551 1 36.69713057699743 42.26060151155179 16.884596585062717
3552 2 33.78296120280934 42.32274920404415 16.967562633074976
3553 1 33.8760688240103 39.48174598236981 22.467435868563395
3554 2 36.723342743130175 39.54517683100848 22.548730472027007
3555 1 33.78384194201805 42.282780833591275 25.317459402856077
3556 2 36.684607434498496 42.30283094872907 25.431362154192822
3557 1 36.67236263988885 39.426750099816815 25.313219544545625
3558 2 33.8122882456775 39.51082800334363 25.296483934801554
3559 1 36.57287026415373 42.294636194741244 22.560997865912356
3560 2 33.90860094866555 42.327960013754996 22.588128614837192
3561 1 33.83381379395052 39.48525657040142 28.141884019266957
3562 2 36.68178512113261 39.50699737022029 28.287952761704503
3563 1 33.8271954031678 42.36519599368259 31.00526620284836
3564 2 36.66965504878275 42.255202454808156 31.06894443512673
3565 1 36.68870280162828 39.460461434199104 30.97701637770852
3566 2 33.82707781986877 39.49046303098856 30.9624878544131
3567 1 36.59603838159728 42.30664256721869 28.256514494483913
3568 2 33.893800138668105 42.2871004509299 28.255289829562606
3569 1 33.845789424307384 39.49290941842939 33.76035606169879
3570 2 36.60782357063236 39.43539656874077 33.85492633006684
3571 1 33.783759554737514 42.31667024626809 36.61412111043445
3572 2 36.593993669791594 42.31868080404448 36.591424926191415
3573 1 36.70491317140695 39.49699339904472 36.738491030662786
3574 2 33.86782697558013 39.447809937813226 36.71071236510576
3575 1 36.656371283713696 42.374267200791735 33.827911947795315
3576 2 33.82510295979669 42.28217868451544 33.8974800489866
3577 1 33.79484212258865 39.48562494439103 39.56250338741492
3578 2 36.71510160570158 39.483403314614385 39.485658372198905
3579 1 33.883309570587905 42.32352827023274 42.34383008031536
3580 2 36.65241687820052 42.348165013165186 42.2692890400131
3581 1 36.59120296305914 39.48571566054597 42.317047651092864
3582 2 33.82370414858845 39.53545607417249 42.3655954181
3583 1 36.64481053114951 42.300441374521924 39.38542027963895
3584 2 33.80916284471535 42.238057858149155 39.47117675246431
3585 1 39.44216644134817 45.095148601410145 0.06644532397273353
3586 2 42.29096875941416 0.041387617159499804 0.06751393073478378
3587 1 39.44938264400072 2.8547642255518126 2.8495347752502944
3588 2 42.275740881454844 2.7554961090598655 2.883133809201165
3589 1 42.37020307333912 45.105166498390844 2.8659341542655086
3590 2 39.41457099705777 0.03060382808656887 2.8274594505003785
3591 1 42.25362629725441 2.780299307169037 45.11458435636422
3592 2 39.5170805701215 2.8557080331347486 0.002515628004760683
3593 1 39.56340605757577 45.09629446269192 5.59106544292072
3594 2 42.31141585892729 0.05586117509277973 5.632873489431495
3595 1 39.45614449194439 2.770854945979568 8.499482361989225
3596 2 42.23626814562386 2.884718064378478 8.472437987802687
3597 1 42.3174063908261 0.06356387499255595 8.501413061144882
3598 2 39.55985004813643 45.11646760661843 8.458793665541831
3599 1 42.31944125396867 2.7546677015962717 5.598677522135733
3600 2 39.46333230229287 2.762086760526487 5.6928558130700635
3601 1 39.41627133922198 0.022011434330837375 11.243711813737246
3602 2 42.28089450524937 0.051972751024812934 11.267620101555837
3603 1 39.54521245178843 2.787664261736557 14.12153213063203
3604 2 42.26967284982509 2.75218765146876 14.068253142575877
3605 1 42.21901257489314 0.013917633372793009 14.12346185433403
3606 2 39.5358736996458 45.065951155840274 14.097889678040769
3607 1 42.25958038622255 2.9045899660945675 11.310705385348573
3608 2 39.514480004092725 2.774137799601073 11.310403157276872
3609 1 39.45762630203736 0.049483899539735705 16.861560085987257
3610 2 42.337412373424826 45.102313416422874 16.857477377999125
3611 1 39.424611321526115 2.8932173529899043 19.748722395002336
3612 2 42.30890755359891 2.7702054679271306 19.724254767706558
3613 1 42.33294295819266 45.07677417223654 19.692274515618717
3614 2 39.487970333147366 45.0534046892728 19.683337608616682
3615 1 42.25649290505577 2.8325768960534004 16.88539361351638
3616 2 39.51373320111124 2.7752869173849612 16.93208731541461
3617 1 39.506400528459594 45.041866677002155 22.549816044028436
3618 2 42.26253356552624 45.0791166989526 22.613615091166416
3619 1 39.50180129826313 2.7666753193888884 25.305847550913008
3620 2 42.348790063982634 2.7684025680845963 25.4209589064728
3621 1 42.36515243395776 0.007731713379599808 25.35072834142588
3622 2 39.41494658512638 0.015377795610722665 25.420667312459077
3623 1 42.2119842936579 2.818658134433252 22.570577222452048
3624 2 39.41474837672855 2.8265270011782384 22.527560989002296
3625 1 39.50002030015757 0.06399232406033101 28.14766135024286
3626 2 42.255402241690135 45.10680508475564 28.17474166087265
3627 1 39.421604347478024 2.822519128944185 30.976267287193238
3628 2 42.30937346725649 2.7619456822948023 31.06351621059757
3629 1 42.29346285958903 45.05849527908673 30.98879368627442
3630 2 39.50957308231563 45.11008212733822 31.082763070295748
3631 1 42.32390906558254 2.793628055218867 28.253312422778723
3632 2 39.4255256479081 2.7853582968784205 28.233070441987284
3633 1 39.5336362362235 45.103109775336485 33.81388874840735
3634 2 42.371252752207226 45.08870088909306 33.846061979740796
3635 1 39.520916038654775 2.7651910801433295 36.6287352380893
3636 2 42.30331610343144 2.883588292404467 36.65381469526667
3637 1 42.245086938807965 45.113770021474146 36.65473058177067
3638 2 39.43892126154661 0.013685135358953698 36.59895529002873
3639 1 42.326341139987 2.788913631168411 33.76263190006529
3640 2 39.529350078431925 2.7997987490682754 33.781645600864145
3641 1 39.46699901097426 45.07989347065746 39.411109482088506
3642 2 42.37126381253626 45.06175446502021 39.51716552299362
3643 1 39.51745048132652 2.783421698361635 42.26424034929017
3644 2 42.250378273687765 2.7997626348415094 42.28570245797817
3645 1 42.34398209555396 0.03650906575647124 42.33856114533391
3646 2 39.42719788742868 45.10006925767596 42.30959434722834
3647 1 42.35052767984693 2.799029650706431 39.514733195185286
3648 2 39.527807478166345 2.7811332621998317 39.493386808944905
3649 1 39.51490300708089 5.601229704167054 45.11692013569913
3650 2 42.24131740281457 5.6519252207843165 45.11372330435115
3651 1 39.45353731189944 8.472631682909359 2.874935576901877
3652 2 42.32300807257888 8.480643196442465 2.8828916138948126
3653 1 42.243701757971586 5.652460987764818 2.790780792969338
3654 2 39.46466583719105 5.655993847279388 2.897733020659963
3655 1 42.233058691318995 8.47295329397615 45.09447691448409
3656 2 39.48729455498606 8.505514814218172 45.05068282762064
3657 1 39.437313940313544 5.674619898855198 5.598994845825107
3658 2 42.22267726179424 5.641035498736225 5.577269343655369
3659 1 39.495276868996726 8.473782443562024 8.394659213034592
3660 2 42.329584134574056 8.421526565373572 8.514414255292092
3661 1 42.26124293407983 5.600956386845678 8.496204966912671
3662 2 39.527707330775236 5.646907613493183 8.505081882147266
3663 1 42.28328806060678 8.495557151240211 5.679228845254553
3664 2 39.495218705577884 8.515613740267575 5.654415023277032
3665 1 39.531015683500655 5.651639757509148 11.212897567984102
3666 2 42.2992725518017 5.612249360146729 11.207575307798262
3667 1 39.53224288657406 8.442178121981115 14.08721314165909
3668 2 42.281387365365816 8.405782333504867 14.078229326889934
3669 1 42.360637628912755 5.597507243262765 14.105457283390853
3670 2 39.44315850154139 5.65508884284307 14.132022476568393
3671 1 42.36519233425376 8.451491388005886 11.309929791391843
3672 2 39.43207409035007 8.47018087236053 11.307753197641938
3673 1 39.53323438944929 5.6224891949657785 16.892933961692712
3674 2 42.262372959397204 5.596868060554977 16.901961297300744
3675 1 39.431399499045206 8.440506987934755 19.673677380133455
3676 2 42.36018315555916 8.479665090842554 19.794371805484886
3677 1 42.30128606531473 5.646904041980864 19.649716855502042
3678 2 39.46178531004053 5.58464038013589 19.698306710015594
3679 1 42.325414749558426 8.41892942590962 16.956905711159234
3680 2 39.4893457005202 8.45474618391257 17.008487389292707
3681 1 39.44469258095601 5.726937525797698 22.554804759951853
3682 2 42.29351038614173 5.704212398317743 22.629128202960604
3683 1 39.419010861604825 8.441320164663836 25.451683098424375
3684 2 42.31186418148603 8.38072762193481 25.365343207309536
3685 1 42.28700088533668 5.5975769298064035 25.424693535764387
3686 2 39.43258436230956 5.646289623591516 25.4650491769603
3687 1 42.32458052801646 8.420468582267413 22.52820902869979
3688 2 39.46253841694827 8.47900861187638 22.61368552692308
3689 1 39.544249328960994 5.665129031885322 28.15926994978074
3690 2 42.230596856725505 5.662874853800992 28.249956776084097
3691 1 39.489920183506264 8.497432839468766 31.05230019168078
3692 2 42.33552941787182 8.389577059067788 31.01102164859519
3693 1 42.33742894827181 5.624172180360922 31.05471533146048
3694 2 39.53765245478647 5.691996324656831 30.97946602857366
3695 1 42.314923957526744 8.531393774723313 28.232175668693134
3696 2 39.50941279221408 8.520860113085035 28.183589441089776
3697 1 39.49855391895258 5.703296314494876 33.803446622625856
3698 2 42.320116355514756 5.589105855283384 33.79619428477308
3699 1 39.45443906969094 8.387097339724237 36.613571864940866
3700 2 42.331761704207814 8.505406908531421 36.70109727339404
3701 1 42.32245854145231 5.659404351009619 36.57403181109052
3702 2 39.42755592374118 5.656243806406109 36.71079836069215
3703 1 42.27158784182704 8.46791436144987 33.90289870337468
3704 2 39.56243625130545 8.488669678416738 33.802397022538976
3705 1 39.50655407439405 5.595544365179401 39.53782582733118
3706 2 42.30440563991239 5.721712352198656 39.49320994033758
3707 1 39.4837373518124 8.523273095085003 42.25892399595979
3708 2 42.30598456582269 8.518530811871171 42.36854063745865
3709 1 42.30096028595238 5.57400906295751 42.24453308835802
3710 2 39.52224465771466 5.662458016554632 42.28297423484417
3711 1 42.343149395467236 8.4543684923171 39.43571886359545
3712 2 39.43717469325766 8.414123448613962 39.45003420874925
3713 1 39.49357457807596 11.22030978121809 45.06400171396691
3714 2 42.297331328606965 11.247366223180965 0.08290258251159023
3715 1 39.50489697314091 14.179538847675264 2.768192512710921
3716 2 42.32456878246575 14.127791563444685 2.901577846579226
3717 1 42.29830522080431 11.186180113929062 2.8183138009335242
3718 2 39.46531258645645 11.242546106131982 2.752114470589355
3719 1 42.38628476621436 14.128091678046506 0.009981565989639892
3720 2 39.452924102249625 14.10264034072926 0.07645847394004215
3721 1 39.551943060226684 11.277377390205633 5.591437065091742
3722 2 42.2444370302501 11.292484283041427 5.672538206256232
3723 1 39.51008687067349 14.171574307699265 8.466928697814184
3724 2 42.35920941625373 14.060695812257407 8.514910403772975
3725 1 42.31277550855935 11.349105510169457 8.445792931524359
3726 2 39.44144951627525 11.30735756215847 8.37796355749481
3727 1 42.29994410118998 14.147717137948321 5.573276653136207
3728 2 39.46197679686662 14.178918546408239 5.629403133273877
3729 1 39.514682604722985 11.318096975504924 11.249134134712035
3730 2 42.30038794479483 11.290854834887368 11.349195154075947
3731 1 39.407153820578074 14.12610508570004 14.071145492884455
3732 2 42.37103742512549 14.072578682916548 14.059213275257715
3733 1 42.28507180580707 11.266588939757757 14.155927918061995
3734 2 39.46723557147753 11.260732975911262 14.042844819554986
3735 1 42.32855798047976 14.055683216167203 11.348074517454886
3736 2 39.39486142232598 14.085116844599138 11.268165781874242
3737 1 39.51173533502154 11.213592478894293 16.936903909365707
3738 2 42.370554181879 11.294606303561284 16.87091346381535
3739 1 39.45886305603917 14.08292274909252 19.6968803569309
3740 2 42.25723144071331 14.022676430057482 19.739583600925044
3741 1 42.31140523562188 11.248454320556222 19.68288829115677
3742 2 39.54666096177195 11.249139921105868 19.77968672802405
3743 1 42.28745888058275 14.054564175553766 16.937405699731777
3744 2 39.45999558347971 14.086189118742329 16.859645284988876
3745 1 39.41894802830718 11.316460748800482 22.536118294947137
3746 2 42.235091441735435 11.23802374868498 22.5888719381923
3747 1 39.4164778180571 14.16987521338856 25.384802835383184
3748 2 42.33842174743222 14.05325273519447 25.374860136066847
3749 1 42.23656135662723 11.313558926567707 25.411575176961403
3750 2 39.42689787429282 11.264786197680355 25.347511109228364
3751 1 42.35752705251008 14.127165227618669 22.60140468850414
3752 2 39.46576245077363 14.14535528485888 22.61873318477558
3753 1 39.438176569312105 11.321960273782555 28.212101559849348
3754 2 42.388667774547066 11.281927139897201 28.193208185358465
3755 1 39.45095175514403 14.136089476437121 30.97975082474931
3756 2 42.29013845062232 14.06105555423782 30.92913413558099
3757 1 42.3218677129319 11.314004502483728 30.98566740926156
3758 2 39.51610639719162 11.259120958963326 31.07673817847125
3759 1 42.321114637521994 14.088073403568167 28.148800166251974
3760 2 39.46672180084727 14.141782027240628 28.253860775418374
3761 1 39.53673705385136 11.29561287001694 33.87341880525592
3762 2 42.2905742740617 11.197060594400305 33.82497419367916
3763 1 39.51094335382782 14.089126794133547 36.59628810236997
3764 2 42.33941449459961 14.175199811864 36.623774917431234
3765 1 42.35949169999324 11.250189993191647 36.59003762194986
3766 2 39.53957046739458 11.322505919619894 36.64490904668012
3767 1 42.307033029226666 14.179206068742374 33.88744408941618
3768 2 39.42903270874874 14.099476827364795 33.82653145826539
3769 1 39.43552351724638 11.235662729600236 39.47140426584757
3770 2 42.243739871081694 11.23654114554348 39.51066507830681
3771 1 39.471051978516975 14.074409766761486 42.354204179140226
3772 2 42.2521897156591 14.104232125080527 42.37765576433031
3773 1 42.34116204351665 11.218923090626188 42.236026896685004
3774 2 39.46029380224866 11.265782557995875 42.34836125873921
3775 1 42.3778988195397 14.13387733628412 39.51649645966041
3776 2 39.53241840826291 14.116556396885823 39.42586091838538
3777 1 39.52854324778212 16.86605727788529 0.04355240298575602
3778 2 42.32389119697834 16.96628246967057 45.10936013258706
3779 1 39.43074661338122 19.756083328990897 2.904705097337956
3780 2 42.23597221780134 19.721056493503227 2.8422674356606863
3781 1 42.34555607964355 16.944237177252152 2.826516370692015
3782 2 39.52841015386847 16.86197198601768 2.876776208515634
3783 1 42.2629103071406 19.746373807495157 45.044131617323586
3784 2 39.42030234858558 19.73602177254118 45.10084156718525
3785 1 39.43566892024759 16.927701789596306 5.67903192775584
3786 2 42.252610101336636 16.98187349618569 5.664514238606232
3787 1 39.54402093569044 19.74792999987005 8.43488226814433
3788 2 42.32468953698865 19.755597912054828 8.404251960488855
3789 1 42.27124946509215 16.94941171554349 8.397001780231381
3790 2 39.434504516348404 16.9557576822525 8.428225199356348
3791 1 42.24135565490928 19.67599653989989 5.611175955244017
3792 2 39.414576430154284 19.696296803244085 5.673121224756024
3793 1 39.472634345540115 16.858901236470356 11.276379749337925
3794 2 42.29405153519023 16.986315958416498 11.299105202040032
3795 1 39.475663010245015 19.694940475796223 14.142302906463495
3796 2 42.303628165200585 19.79608394521243 14.058490399723896
3797 1 42.34323913913204 17.007000999205893 14.094137291963984
3798 2 39.439223141583696 16.953334357985504 14.100567611690465
3799 1 42.255217321556884 19.739980105393148 11.2234657336259
3800 2 39.42968890440199 19.774275210868122 11.314236868235483
3801 1 39.53370116551882 16.94943087899015 16.92246603373353
3802 2 42.36174242405546 16.919165671773392 16.95539532364827
3803 1 39.47334727616061 19.640954505598465 19.731375456677128
3804 2 42.220166672038225 19.781434875475465 19.764965899211624
3805 1 42.30387270466108 16.84595166467096 19.746755891261802
3806 2 39.46556624526337 16.903900199929772 19.69016750308284
3807 1 42.38554532108515 19.730589910474098 16.936923581331826
3808 2 39.46679641979408 19.74148109417579 17.01642741473756
3809 1 39.51351207413611 16.853140528342657 22.58337266304229
3810 2 42.3308190395025 16.84567222294261 22.516226905799066
3811 1 39.475926396729946 19.795100304124137 25.39102518563218
3812 2 42.37663348370036 19.710793916645564 25.393096890798958
3813 1 42.32945328918021 16.952831274079216 25.4432295905452
3814 2 39.43726847182251 16.981433525647045 25.340177520335768
3815 1 42.206713175994096 19.74915400354817 22.53925521408088
3816 2 39.54778347372859 19.696333518218974 22.595882531168346
3817 1 39.499148967631186 16.948179560663995 28.132801258331938
3818 2 42.28683903650621 16.886869789095982 28.162058254039156
3819 1 39.50161512810703 19.800774886597626 30.99526456539557
3820 2 42.25345269223923 19.71960112395422 31.053514301233804
3821 1 42.322050446371556 17.00808904271058 30.999493444328472
3822 2 39.52340507096271 16.930141645464513 30.996483504931156
3823 1 42.34371526801614 19.76301865356347 28.240150005975377
3824 2 39.43836855456579 19.704637216946544 28.197431412042985
3825 1 39.436485843924686 16.86369276186402 33.88050455788925
3826 2 42.31807492185733 16.919097015334287 33.745502000904914
3827 1 39.51476305345819 19.78174055609733 36.585228347109094
3828 2 42.27557246581884 19.760741119676823 36.70873321503312
3829 1 42.306729190300736 16.982507210330983 36.63018145900902
3830 2 39.46646746908832 16.86456487983292 36.63361263207799
3831 1 42.24809037862505 19.719900704638977 33.816337912467844
3832 2 39.530077347905724 19.698963812797206 33.869562237733554
3833 1 39.478581645937936 16.908932281568813 39.42459004353907
3834 2 42.264498680590016 16.93991541007938 39.53827707258332
3835 1 39.50083061421484 19.792355051424675 42.3338817267075
3836 2 42.28483100340072 19.784099267664754 42.36649527706825
3837 1 42.3544594730304 16.857354857951893 42.33759311176022
3838 2 39.55407790327846 16.9003426761311 42.329629372188194
3839 1 42.3580989644963 19.789382117688003 39.49123051430707
3840 2 39.49968086536679 19.78485170703624 39.49878025909239
3841 1 39.45400824006598 22.59069916024201 45.04920876620334
3842 2 42.275734492955344 22.613356669474204 45.08987171865942
3843 1 39.39020160647414 25.35854809798043 2.791695476268785
3844 2 42.361185831188436 25.36289706952041 2.814492866898603
3845 1 42.30830182993188 22.60665985265195 2.8496631945846485
3846 2 39.53002549282491 22.529244271558266 2.7836598804674777
3847 1 42.24582358562743 25.41453188552485 45.08990111041687
3848 2 39.46998294518638 25.39446967592719 0.09293458094663724
3849 1 39.55001553799717 22.568403632021635 5.682112667248389
3850 2 42.2406494538188 22.57671274342975 5.607075034431586
3851 1 39.453983465387815 25.334593448860968 8.486742846574604
3852 2 42.336103161405184 25.40614778041681 8.4302023324461
3853 1 42.23504715393688 22.582454965729802 8.47233938085352
3854 2 39.48777288320838 22.54207267444239 8.391972586998348
3855 1 42.356141212720054 25.337000192926826 5.696863670137823
3856 2 39.50741505137486 25.38834406667873 5.721445019634097
3857 1 39.560006652148154 22.59807218487425 11.242718851442275
3858 2 42.29501500045217 22.543237133952672 11.194065705083574
3859 1 39.48531350759333 25.358786013126885 14.193693690151537
3860 2 42.247888407218014 25.307371010890467 14.113092042200522
3861 1 42.327172281663344 22.646622503071743 14.068733776374229
3862 2 39.53724194237859 22.58020376785012 14.117151573198557
3863 1 42.27372489598458 25.33503216069503 11.308066651360928
3864 2 39.45743647054205 25.41484698594798 11.248564405510427
3865 1 39.39325900748074 22.56901015820295 16.913459318285376
3866 2 42.31867910217497 22.594462814193058 16.993566395313888
3867 1 39.549025977931876 25.3496054517335 19.726682179780592
3868 2 42.266888728115845 25.390469349295596 19.668606718528977
3869 1 42.23684605530245 22.56265563362228 19.729969015374543
3870 2 39.49594860018914 22.584554954132088 19.66159016493092
3871 1 42.30823849774431 25.3748003144869 16.979082247851412
3872 2 39.48770131981248 25.323533386384067 16.87500883408633
3873 1 39.439690103659906 22.552701406038437 22.496024655839133
3874 2 42.249849387341776 22.56735915402303 22.53451309911328
3875 1 39.46517320325129 25.471183996257395 25.416997238623686
3876 2 42.28293730827007 25.408285804470133 25.439639356707467
3877 1 42.2573830176995 22.531328067356473 25.30347314661555
3878 2 39.451871530381815 22.57369007891943 25.325247505118107
3879 1 42.30781461405289 25.369337368815955 22.508995590281987
3880 2 39.54407229933199 25.392567516368317 22.534788763460927
3881 1 39.53303511354309 22.592807068902346 28.17637265891851
3882 2 42.22816913320977 22.54719192554132 28.149924971251146
3883 1 39.4954431613306 25.423175724619743 31.080710411637146
3884 2 42.26768039057239 25.44812363959099 30.98002251234408
3885 1 42.303855533385615 22.65475472786453 31.0294279045336
3886 2 39.50657713886734 22.61389435688242 31.00625370842562
3887 1 42.32005194319458 25.4500844693306 28.20437843047536
3888 2 39.47534527492626 25.447265295443522 28.181946463317328
3889 1 39.53535278311009 22.604019406893954 33.81274804798508
3890 2 42.295675607418374 22.616280837805096 33.80801429161139
3891 1 39.423713273608776 25.316246834400356 36.668826876935555
3892 2 42.26229175838832 25.32109261339283 36.59091547270282
3893 1 42.26603529744594 22.5451936422111 36.7500550462905
3894 2 39.49182996172043 22.64531784052547 36.70784300291684
3895 1 42.30025339260378 25.435349019124615 33.859217274857066
3896 2 39.436219366073495 25.40156650708027 33.88145087553185
3897 1 39.433831173555106 22.605282332283803 39.4702732772989
3898 2 42.34407531803502 22.581749392788502 39.56455910950001
3899 1 39.425206650542094 25.459691532494162 42.30329458559246
3900 2 42.28244474157541 25.314939165160936 42.337716491867454
3901 1 42.36983803219157 22.61277911419008 42.29041860361636
3902 2 39.4052391563503 22.55659823428455 42.27973321862598
3903 1 42.29673461361533 25.29730141334512 39.48149854646859
3904 2 39.43068919299 25.3694666816032 39.48217792604296
3905 1 39.522906232345825 28.278677802613323 45.09884017007819
3906 2 42.21060232260608 28.192040376889516 45.09527904272451
3907 1 39.43972621592478 31.05141475112424 2.895059364610221
3908 2 42.38815086377922 31.03389847253913 2.8321246239031757
3909 1 42.380545804348394 28.174493319338893 2.8359267126492873
3910 2 39.558819088312 28.181103726889745 2.814919786586329
3911 1 42.25562109971222 30.985417514088848 0.06846837601043994
3912 2 39.52623038021328 30.98617512030611 0.008904212758023071
3913 1 39.44424029724588 28.11023493442575 5.651159004246732
3914 2 42.25827641949342 28.27394458320983 5.660485417794429
3915 1 39.50246004023267 31.082339221898465 8.435737679510162
3916 2 42.32286785782774 30.96786796388834 8.463731053838735
3917 1 42.34920171803543 28.234053876484328 8.537940590369493
3918 2 39.42291765906309 28.164189827347503 8.496188021043718
3919 1 42.30002331844765 30.932432328000285 5.617333754727897
3920 2 39.49724585771911 30.989339130872327 5.687639387337025
3921 1 39.41961457153434 28.229353490331064 11.304277116518579
3922 2 42.257529376268586 28.117615496124028 11.28157919569556
3923 1 39.40779557041111 31.037055274191935 14.08088041871561
3924 2 42.22762982375173 31.07499718012031 14.109205069626904
3925 1 42.34403114339592 28.18125894587084 14.019020558402499
3926 2 39.564850061473756 28.16618698849214 14.07007131503692
3927 1 42.270571937591825 31.087758971552596 11.27481151261719
3928 2 39.481990536100575 31.11408434159858 11.281173637283244
3929 1 39.47948155096912 28.18567028801582 16.86769145303513
3930 2 42.2982887114406 28.262225444563466 16.9073286717126
3931 1 39.55094456408767 31.015300190653978 19.74362168624547
3932 2 42.259535402500624 31.06142206652033 19.816317676975107
3933 1 42.36712757513285 28.26530527533183 19.74318727986944
3934 2 39.51221287401357 28.13483870702602 19.796691219067434
3935 1 42.303415631167795 31.00071122290253 16.8707243214032
3936 2 39.52816794592363 31.09838980553445 16.930517554657296
3937 1 39.43579060493536 28.16892250122474 22.632395843173885
3938 2 42.26047395096322 28.164956606927603 22.587483891450578
3939 1 39.46403036885992 31.01666547750337 25.466707167435743
3940 2 42.34823878400158 30.994271229542164 25.36494942966447
3941 1 42.34386044985568 28.189869760031765 25.35542568613639
3942 2 39.53850384246128 28.15919400669027 25.420296060999082
3943 1 42.250813929619454 31.011156989598458 22.562442136514793
3944 2 39.50267254203834 30.938141368091287 22.512165827005475
3945 1 39.51284279283092 28.19434916941457 28.141444792878165
3946 2 42.296831639484004 28.25559072848045 28.215718097240824
3947 1 39.42077540044025 31.084478849976765 31.04717002780059
3948 2 42.35616141418302 31.059418250714124 31.029334137134732
3949 1 42.32189994508575 28.201313179931677 30.930996752392687
3950 2 39.48495088983393 28.1511063039165 31.062747204666984
3951 1 42.37469859851739 31.02551594568353 28.23738708828386
3952 2 39.4365569943405 31.09864909507243 28.213354074796545
3953 1 39.415357873005405 28.150190091015006 33.83019424542734
3954 2 42.248587788193 28.268163080873727 33.84618678340021
3955 1 39.49125135889449 30.9413011855579 36.69315029461665
3956 2 42.26863040551943 31.002921102736707 36.61445290481514
3957 1 42.2925055101184 28.225879551562553 36.597577791829806
3958 2 39.51899012505822 28.165404714985076 36.68595331903786
3959 1 42.29858008245331 31.10027543178453 33.88674327970586
3960 2 39.484026341389146 30.936319209716874 33.83960567295469
3961 1 39.46508865408332 28.250621615135028 39.551427825457004
3962 2 42.32300219520787 28.164508955998983 39.401650962121956
3963 1 39.476864160608756 30.923584553797244 42.27510311211916
3964 2 42.29943808893549 30.949782172375677 42.247572914252665
3965 1 42.214800809076976 28.209092923241244 42.28136054273062
3966 2 39.51014459896575 28.28323552050415 42.26409945762268
3967 1 42.22963672499688 31.011892163055222 39.47680237045398
3968 2 39.53994056963568 31.02810761219288 39.464498236578414
3969 1 39.459216155413884 33.92599001856963 45.10574128297643
3970 2 42.34285412693906 33.91392370734382 45.10517127468778
3971 1 39.479024347910894 36.62005100626103 2.8712718210466157
3972 2 42.37747168671399 36.690093227991206 2.835544947861468
3973 1 42.36643920802084 33.887739082517626 2.78143183630414
3974 2 39.48626098777524 33.90401278405867 2.859537568953015
3975 1 42.35724793464451 36.697187843048084 0.06722791194716428
3976 2 39.51482866434907 36.69819640587386 45.10809261164555
3977 1 39.54187726543977 33.82185389932721 5.592870033048219
3978 2 42.25438521757 33.846222029046885 5.613589765657602
3979 1 39.44450503977186 36.70596071907706 8.520009354040761
3980 2 42.21994864915197 36.698472003685424 8.446641681141315
3981 1 42.3454578823497 33.90598243265178 8.430772899645081
3982 2 39.52089129515825 33.82700015934299 8.385769222772254
3983 1 42.279786091992555 36.73048347035076 5.701178720976916
3984 2 39.50157361697149 36.651747348724236 5.590852057809315
3985 1 39.55693505218664 33.80969555550654 11.283090543658796
3986 2 42.319081692089235 33.92048620437367 11.2674626872887
3987 1 39.504033586674 36.64586231847643 14.019042478397346
3988 2 42.284337043587435 36.697137411848566 14.17055587822946
3989 1 42.35788468103566 33.77476667963419 14.054505920544674
3990 2 39.45402581422011 33.82658380456672 14.052095633999919
3991 1 42.35647623892987 36.60826652777318 11.246447403670984
3992 2 39.5131801603364 36.65079666425687 11.226444381647262
3993 1 39.52250461709877 33.86224303782215 16.890697888874275
3994 2 42.273419039030905 33.84823202912596 16.83238039849215
3995 1 39.526304824055046 36.72104126291865 19.712901307939024
3996 2 42.24605787595697 36.610447235741205 19.76832255123659
3997 1 42.34018028950582 33.915995392930675 19.71708064259867
3998 2 39.511067003118406 33.80668498642621 19.700379356580164
3999 1 42.238919162712264 36.58527422995088 16.932270964709627
4000 2 39.49399119872458 36.73907602968516 16.93948464143498
4001 1 39.51217373778545 33.75877493514256 22.604845980952135
4002 2 42.25377201509229 33.80786857410422 22.509966154792604
4003 1 39.56945924411048 36.65177389329586 25.39687464461423
4004 2 42.352887018935704 36.68406908644824 25.35725549577733
4005 1 42.21145961982783 33.83011798347267 25.39540043727763
4006 2 39.541626612482055 33.877219986398444 25.323987183172743
4007 1 42.338091927731895 36.69471121248896 22.488628034918072
4008 2 39.45815022119168 36.60025324923871 22.509660053179665
4009 1 39.51229842810175 33.886198993372425 28.161930628018954
4010 2 42.281731052918474 33.80326297797772 28.144902264294874
4011 1 39.503593016546674 36.65580235491067 30.93579770486758
4012 2 42.32089263985939 36.61178852095643 31.058162532882175
4013 1 42.236895688566634 33.86293166383751 30.999691483761787
4014 2 39.42980977898323 33.82565451452975 31.04243139505494
4015 1 42.28236110420781 36.593949859854476 28.21092949570449
4016 2 39.468189178032745 36.59422961436032 28.240263954874134
4017 1 39.43799039511264 33.79403483775939 33.87595557158913
4018 2 42.35250478157196 33.90563785070107 33.86125681884225
4019 1 39.457884101495914 36.645551022141035 36.70968737416348
4020 2 42.22705669195289 36.71645424771272 36.64480081470278
4021 1 42.33596419590464 33.878873332503744 36.65713059361307
4022 2 39.52536318370921 33.83365894655197 36.63530738995947
4023 1 42.365150187463186 36.72423902884069 33.812289567239084
4024 2 39.47312313501409 36.7371543137205 33.85784817493077
4025 1 39.452575094899636 33.77119816943104 39.50563883815242
4026 2 42.34659860934746 33.889355088385756 39.461821493149166
4027 1 39.49806727901603 36.64243799109896 42.21783923420079
4028 2 42.28347989201381 36.65346003812718 42.37369374865006
4029 1 42.26701346537034 33.79518721822057 42.28948717545883
4030 2 39.47318226528903 33.834406102270584 42.365409822213174
4031 1 42.35617288169471 36.62159305510062 39.46354103702137
4032 2 39.46487755842848 36.72900906903797 39.46440828050559
4033 1 39.50093098840796 39.483766151926815 45.06487734204834
4034 2 42.36480587459542 39.531125203520226 0.03730983751078915
4035 1 39.490019448401355 42.25127918303469 2.8447262712732306
4036 2 42.25815487777815 42.37449806213629 2.7979447778971367
4037 1 42.26370029884882 39.46636680649938 2.7397608876041244
4038 2 39.427060235253215 39.49586040696797 2.768058882607678
4039 1 42.33717095634288 42.2580865017668 0.028949380639410424
4040 2 39.48481467386635 42.37274170714646 0.06588173073154152
4041 1 39.52296662314728 39.431569428166014 5.671114392731593
4042 2 42.31909703313512 39.56545159664734 5.639568370488271
4043 1 39.5215673171072 42.27213042182013 8.456597631332365
4044 2 42.31093228134751 42.33068042087805 8.412413086479399
4045 1 42.334186427458825 39.432736324832085 8.502038927730776
4046 2 39.48930610230911 39.518686863663206 8.384663109773777
4047 1 42.39436735838612 42.292376163171724 5.668845782553762
4048 2 39.46904885554612 42.36989884675486 5.596094336866206
4049 1 39.419988918776774 39.502925687508714 11.23310643165043
4050 2 42.25765580230582 39.43469913133837 11.347257185440714
4051 1 39.45570440993251 42.35886916074828 14.085277857550562
4052 2 42.25026334622318 42.26819168651407 14.039369689801793
4053 1 42.27438959277917 39.47048197484893 14.032411648890982
4054 2 39.529286089223184 39.46095344925068 14.13808787834788
4055 1 42.251827917961165 42.286151328907614 11.23597222643033
4056 2 39.48127308911995 42.30223021843814 11.330813313566674
4057 1 39.49863152540615 39.53971400666278 16.930998070724318
4058 2 42.35855455919832 39.45484935781836 16.971923038321346
4059 1 39.47526059729289 42.398436897551456 19.737421459565233
4060 2 42.385292789617566 42.26229338915727 19.747065478281385
4061 1 42.3674574477964 39.50681605870809 19.75373425722585
4062 2 39.48185789624064 39.42562335360507 19.78284852591076
4063 1 42.35448021387458 42.3579875078092 16.922816186446113
4064 2 39.54514916075423 42.30092460063019 16.884864176701637
4065 1 39.54534918492133 39.49064193914486 22.58010946090026
4066 2 42.361619937062635 39.49246904272394 22.60955155289961
4067 1 39.52763071259773 42.251094801320136 25.413492362955107
4068 2 42.30104923352539 42.33147635717642 25.33083364304562
4069 1 42.32705905881638 39.54440413889317 25.354186339842904
4070 2 39.53060273918973 39.546994405942556 25.33217299470804
4071 1 42.354369076384366 42.34989393127325 22.539635496612938
4072 2 39.44299900418653 42.361878343321514 22.50605421664903
4073 1 39.414310476476594 39.535594514071434 28.156427866584934
4074 2 42.2875094079896 39.50984200465351 28.238974635414543
4075 1 39.5667821186041 42.31867723449915 31.003708346562043
4076 2 42.2703582076372 42.24018093426255 31.069029678795697
4077 1 42.29518151319417 39.5333451269767 31.0438675230114
4078 2 39.476312533189514 39.39012664770454 30.990910049143054
4079 1 42.3110806199243 42.37246299836078 28.25592143277677
4080 2 39.536924309014296 42.30764715791195 28.174361702292025
4081 1 39.43896407840891 39.5124112118965 33.862953741378064
4082 2 42.2880545132403 39.49722411803809 33.78381224956719
4083 1 39.50879007927174 42.21428200785402 36.701284616524596
4084 2 42.25353041951755 42.26850285084113 36.61274119496021
4085 1 42.30283419408833 39.53128883424359 36.64970895546718
4086 2 39.49690292069992 39.52802806199783 36.59692172052783
4087 1 42.33714049264861 42.334283681370735 33.836308769672435
4088 2 39.485956460260425 42.23001478741857 33.80807199821518
4089 1 39.446907968168475 39.54166444543973 39.46937668951856
4090 2 42.265734058911576 39.48048845470821 39.43604422464342
4091 1 39.43552105608134 42.288333071160636 42.33297670399662
4092 2 42.36051928900718 42.2973177833762 42.33040053918465
4093 1 42.30191493636704 39.40153672068513 42.332821749583395
4094 2 39.521299891676534 39.480340338596925 42.263971904708725
4095 1 42.34453047762727 42.268480577471614 39.43428160285584
4096 2 39.44124290311849 42.23048204499959 39.52631623965895

